p cnf 21 91
-8 -9 0
-8 -10 0
-8 -11 0
-8 -12 0
-8 -13 0
-8 -14 0
-9 -10 0
-9 -11 0
-9 -12 0
-9 -13 0
-9 -14 0
-10 -11 0
-10 -12 0
-10 -13 0
-10 -14 0
-11 -12 0
-11 -13 0
-11 -14 0
-12 -13 0
-12 -14 0
-13 -14 0
-15 -16 0
-15 -17 0
-15 -18 0
-15 -19 0
-15 -20 0
-15 -21 0
-16 -17 0
-16 -18 0
-16 -19 0
-16 -20 0
-16 -21 0
-17 -18 0
-17 -19 0
-17 -20 0
-17 -21 0
-18 -19 0
-18 -20 0
-18 -21 0
-19 -20 0
-19 -21 0
-20 -21 0
-9 -15 0
-10 -15 0
-11 -15 0
-12 -15 0
-13 -15 0
-14 -15 0
-10 -16 0
-11 -16 0
-12 -16 0
-13 -16 0
-14 -16 0
-11 -17 0
-12 -17 0
-13 -17 0
-14 -17 0
-12 -18 0
-13 -18 0
-14 -18 0
-13 -19 0
-14 -19 0
-14 -20 0
-8 1 0
-9 2 0
-10 3 0
-11 4 0
-12 5 0
-13 6 0
-14 7 0
-15 1 0
-16 2 0
-17 3 0
-18 4 0
-19 5 0
-20 6 0
-21 7 0
-1 8 15 0
-2 9 16 0
-3 10 17 0
-4 11 18 0
-5 12 19 0
-6 13 20 0
-7 14 21 0
1 3 4 5 6 0
1 6 0
2 3 5 0
2 3 6 7 0
2 4 5 6 0
3 4 7 0
4 5 6 7 0
