p cnf 36 246
-13 -14 0
-13 -15 0
-13 -16 0
-13 -17 0
-13 -18 0
-13 -19 0
-13 -20 0
-13 -21 0
-13 -22 0
-13 -23 0
-13 -24 0
-14 -15 0
-14 -16 0
-14 -17 0
-14 -18 0
-14 -19 0
-14 -20 0
-14 -21 0
-14 -22 0
-14 -23 0
-14 -24 0
-15 -16 0
-15 -17 0
-15 -18 0
-15 -19 0
-15 -20 0
-15 -21 0
-15 -22 0
-15 -23 0
-15 -24 0
-16 -17 0
-16 -18 0
-16 -19 0
-16 -20 0
-16 -21 0
-16 -22 0
-16 -23 0
-16 -24 0
-17 -18 0
-17 -19 0
-17 -20 0
-17 -21 0
-17 -22 0
-17 -23 0
-17 -24 0
-18 -19 0
-18 -20 0
-18 -21 0
-18 -22 0
-18 -23 0
-18 -24 0
-19 -20 0
-19 -21 0
-19 -22 0
-19 -23 0
-19 -24 0
-20 -21 0
-20 -22 0
-20 -23 0
-20 -24 0
-21 -22 0
-21 -23 0
-21 -24 0
-22 -23 0
-22 -24 0
-23 -24 0
-25 -26 0
-25 -27 0
-25 -28 0
-25 -29 0
-25 -30 0
-25 -31 0
-25 -32 0
-25 -33 0
-25 -34 0
-25 -35 0
-25 -36 0
-26 -27 0
-26 -28 0
-26 -29 0
-26 -30 0
-26 -31 0
-26 -32 0
-26 -33 0
-26 -34 0
-26 -35 0
-26 -36 0
-27 -28 0
-27 -29 0
-27 -30 0
-27 -31 0
-27 -32 0
-27 -33 0
-27 -34 0
-27 -35 0
-27 -36 0
-28 -29 0
-28 -30 0
-28 -31 0
-28 -32 0
-28 -33 0
-28 -34 0
-28 -35 0
-28 -36 0
-29 -30 0
-29 -31 0
-29 -32 0
-29 -33 0
-29 -34 0
-29 -35 0
-29 -36 0
-30 -31 0
-30 -32 0
-30 -33 0
-30 -34 0
-30 -35 0
-30 -36 0
-31 -32 0
-31 -33 0
-31 -34 0
-31 -35 0
-31 -36 0
-32 -33 0
-32 -34 0
-32 -35 0
-32 -36 0
-33 -34 0
-33 -35 0
-33 -36 0
-34 -35 0
-34 -36 0
-35 -36 0
-14 -25 0
-15 -25 0
-16 -25 0
-17 -25 0
-18 -25 0
-19 -25 0
-20 -25 0
-21 -25 0
-22 -25 0
-23 -25 0
-24 -25 0
-15 -26 0
-16 -26 0
-17 -26 0
-18 -26 0
-19 -26 0
-20 -26 0
-21 -26 0
-22 -26 0
-23 -26 0
-24 -26 0
-16 -27 0
-17 -27 0
-18 -27 0
-19 -27 0
-20 -27 0
-21 -27 0
-22 -27 0
-23 -27 0
-24 -27 0
-17 -28 0
-18 -28 0
-19 -28 0
-20 -28 0
-21 -28 0
-22 -28 0
-23 -28 0
-24 -28 0
-18 -29 0
-19 -29 0
-20 -29 0
-21 -29 0
-22 -29 0
-23 -29 0
-24 -29 0
-19 -30 0
-20 -30 0
-21 -30 0
-22 -30 0
-23 -30 0
-24 -30 0
-20 -31 0
-21 -31 0
-22 -31 0
-23 -31 0
-24 -31 0
-21 -32 0
-22 -32 0
-23 -32 0
-24 -32 0
-22 -33 0
-23 -33 0
-24 -33 0
-23 -34 0
-24 -34 0
-24 -35 0
-13 1 0
-14 2 0
-15 3 0
-16 4 0
-17 5 0
-18 6 0
-19 7 0
-20 8 0
-21 9 0
-22 10 0
-23 11 0
-24 12 0
-25 1 0
-26 2 0
-27 3 0
-28 4 0
-29 5 0
-30 6 0
-31 7 0
-32 8 0
-33 9 0
-34 10 0
-35 11 0
-36 12 0
-1 13 25 0
-2 14 26 0
-3 15 27 0
-4 16 28 0
-5 17 29 0
-6 18 30 0
-7 19 31 0
-8 20 32 0
-9 21 33 0
-10 22 34 0
-11 23 35 0
-12 24 36 0
1 2 4 7 8 11 12 0
1 2 5 6 9 10 0
1 3 4 6 7 8 9 10 11 12 0
1 3 5 8 10 11 12 0
1 3 7 8 11 0
1 4 5 7 8 9 10 11 12 0
1 4 8 11 0
2 3 5 6 11 0
2 3 8 9 11 0
2 3 8 10 11 12 0
2 5 6 8 12 0
3 6 7 9 10 11 12 0
