p cnf 175 6500
-26 -27 0
-26 -28 0
-26 -29 0
-26 -30 0
-26 -31 0
-26 -32 0
-26 -33 0
-26 -34 0
-26 -35 0
-26 -36 0
-26 -37 0
-26 -38 0
-26 -39 0
-26 -40 0
-26 -41 0
-26 -42 0
-26 -43 0
-26 -44 0
-26 -45 0
-26 -46 0
-26 -47 0
-26 -48 0
-26 -49 0
-26 -50 0
-27 -28 0
-27 -29 0
-27 -30 0
-27 -31 0
-27 -32 0
-27 -33 0
-27 -34 0
-27 -35 0
-27 -36 0
-27 -37 0
-27 -38 0
-27 -39 0
-27 -40 0
-27 -41 0
-27 -42 0
-27 -43 0
-27 -44 0
-27 -45 0
-27 -46 0
-27 -47 0
-27 -48 0
-27 -49 0
-27 -50 0
-28 -29 0
-28 -30 0
-28 -31 0
-28 -32 0
-28 -33 0
-28 -34 0
-28 -35 0
-28 -36 0
-28 -37 0
-28 -38 0
-28 -39 0
-28 -40 0
-28 -41 0
-28 -42 0
-28 -43 0
-28 -44 0
-28 -45 0
-28 -46 0
-28 -47 0
-28 -48 0
-28 -49 0
-28 -50 0
-29 -30 0
-29 -31 0
-29 -32 0
-29 -33 0
-29 -34 0
-29 -35 0
-29 -36 0
-29 -37 0
-29 -38 0
-29 -39 0
-29 -40 0
-29 -41 0
-29 -42 0
-29 -43 0
-29 -44 0
-29 -45 0
-29 -46 0
-29 -47 0
-29 -48 0
-29 -49 0
-29 -50 0
-30 -31 0
-30 -32 0
-30 -33 0
-30 -34 0
-30 -35 0
-30 -36 0
-30 -37 0
-30 -38 0
-30 -39 0
-30 -40 0
-30 -41 0
-30 -42 0
-30 -43 0
-30 -44 0
-30 -45 0
-30 -46 0
-30 -47 0
-30 -48 0
-30 -49 0
-30 -50 0
-31 -32 0
-31 -33 0
-31 -34 0
-31 -35 0
-31 -36 0
-31 -37 0
-31 -38 0
-31 -39 0
-31 -40 0
-31 -41 0
-31 -42 0
-31 -43 0
-31 -44 0
-31 -45 0
-31 -46 0
-31 -47 0
-31 -48 0
-31 -49 0
-31 -50 0
-32 -33 0
-32 -34 0
-32 -35 0
-32 -36 0
-32 -37 0
-32 -38 0
-32 -39 0
-32 -40 0
-32 -41 0
-32 -42 0
-32 -43 0
-32 -44 0
-32 -45 0
-32 -46 0
-32 -47 0
-32 -48 0
-32 -49 0
-32 -50 0
-33 -34 0
-33 -35 0
-33 -36 0
-33 -37 0
-33 -38 0
-33 -39 0
-33 -40 0
-33 -41 0
-33 -42 0
-33 -43 0
-33 -44 0
-33 -45 0
-33 -46 0
-33 -47 0
-33 -48 0
-33 -49 0
-33 -50 0
-34 -35 0
-34 -36 0
-34 -37 0
-34 -38 0
-34 -39 0
-34 -40 0
-34 -41 0
-34 -42 0
-34 -43 0
-34 -44 0
-34 -45 0
-34 -46 0
-34 -47 0
-34 -48 0
-34 -49 0
-34 -50 0
-35 -36 0
-35 -37 0
-35 -38 0
-35 -39 0
-35 -40 0
-35 -41 0
-35 -42 0
-35 -43 0
-35 -44 0
-35 -45 0
-35 -46 0
-35 -47 0
-35 -48 0
-35 -49 0
-35 -50 0
-36 -37 0
-36 -38 0
-36 -39 0
-36 -40 0
-36 -41 0
-36 -42 0
-36 -43 0
-36 -44 0
-36 -45 0
-36 -46 0
-36 -47 0
-36 -48 0
-36 -49 0
-36 -50 0
-37 -38 0
-37 -39 0
-37 -40 0
-37 -41 0
-37 -42 0
-37 -43 0
-37 -44 0
-37 -45 0
-37 -46 0
-37 -47 0
-37 -48 0
-37 -49 0
-37 -50 0
-38 -39 0
-38 -40 0
-38 -41 0
-38 -42 0
-38 -43 0
-38 -44 0
-38 -45 0
-38 -46 0
-38 -47 0
-38 -48 0
-38 -49 0
-38 -50 0
-39 -40 0
-39 -41 0
-39 -42 0
-39 -43 0
-39 -44 0
-39 -45 0
-39 -46 0
-39 -47 0
-39 -48 0
-39 -49 0
-39 -50 0
-40 -41 0
-40 -42 0
-40 -43 0
-40 -44 0
-40 -45 0
-40 -46 0
-40 -47 0
-40 -48 0
-40 -49 0
-40 -50 0
-41 -42 0
-41 -43 0
-41 -44 0
-41 -45 0
-41 -46 0
-41 -47 0
-41 -48 0
-41 -49 0
-41 -50 0
-42 -43 0
-42 -44 0
-42 -45 0
-42 -46 0
-42 -47 0
-42 -48 0
-42 -49 0
-42 -50 0
-43 -44 0
-43 -45 0
-43 -46 0
-43 -47 0
-43 -48 0
-43 -49 0
-43 -50 0
-44 -45 0
-44 -46 0
-44 -47 0
-44 -48 0
-44 -49 0
-44 -50 0
-45 -46 0
-45 -47 0
-45 -48 0
-45 -49 0
-45 -50 0
-46 -47 0
-46 -48 0
-46 -49 0
-46 -50 0
-47 -48 0
-47 -49 0
-47 -50 0
-48 -49 0
-48 -50 0
-49 -50 0
-51 -52 0
-51 -53 0
-51 -54 0
-51 -55 0
-51 -56 0
-51 -57 0
-51 -58 0
-51 -59 0
-51 -60 0
-51 -61 0
-51 -62 0
-51 -63 0
-51 -64 0
-51 -65 0
-51 -66 0
-51 -67 0
-51 -68 0
-51 -69 0
-51 -70 0
-51 -71 0
-51 -72 0
-51 -73 0
-51 -74 0
-51 -75 0
-52 -53 0
-52 -54 0
-52 -55 0
-52 -56 0
-52 -57 0
-52 -58 0
-52 -59 0
-52 -60 0
-52 -61 0
-52 -62 0
-52 -63 0
-52 -64 0
-52 -65 0
-52 -66 0
-52 -67 0
-52 -68 0
-52 -69 0
-52 -70 0
-52 -71 0
-52 -72 0
-52 -73 0
-52 -74 0
-52 -75 0
-53 -54 0
-53 -55 0
-53 -56 0
-53 -57 0
-53 -58 0
-53 -59 0
-53 -60 0
-53 -61 0
-53 -62 0
-53 -63 0
-53 -64 0
-53 -65 0
-53 -66 0
-53 -67 0
-53 -68 0
-53 -69 0
-53 -70 0
-53 -71 0
-53 -72 0
-53 -73 0
-53 -74 0
-53 -75 0
-54 -55 0
-54 -56 0
-54 -57 0
-54 -58 0
-54 -59 0
-54 -60 0
-54 -61 0
-54 -62 0
-54 -63 0
-54 -64 0
-54 -65 0
-54 -66 0
-54 -67 0
-54 -68 0
-54 -69 0
-54 -70 0
-54 -71 0
-54 -72 0
-54 -73 0
-54 -74 0
-54 -75 0
-55 -56 0
-55 -57 0
-55 -58 0
-55 -59 0
-55 -60 0
-55 -61 0
-55 -62 0
-55 -63 0
-55 -64 0
-55 -65 0
-55 -66 0
-55 -67 0
-55 -68 0
-55 -69 0
-55 -70 0
-55 -71 0
-55 -72 0
-55 -73 0
-55 -74 0
-55 -75 0
-56 -57 0
-56 -58 0
-56 -59 0
-56 -60 0
-56 -61 0
-56 -62 0
-56 -63 0
-56 -64 0
-56 -65 0
-56 -66 0
-56 -67 0
-56 -68 0
-56 -69 0
-56 -70 0
-56 -71 0
-56 -72 0
-56 -73 0
-56 -74 0
-56 -75 0
-57 -58 0
-57 -59 0
-57 -60 0
-57 -61 0
-57 -62 0
-57 -63 0
-57 -64 0
-57 -65 0
-57 -66 0
-57 -67 0
-57 -68 0
-57 -69 0
-57 -70 0
-57 -71 0
-57 -72 0
-57 -73 0
-57 -74 0
-57 -75 0
-58 -59 0
-58 -60 0
-58 -61 0
-58 -62 0
-58 -63 0
-58 -64 0
-58 -65 0
-58 -66 0
-58 -67 0
-58 -68 0
-58 -69 0
-58 -70 0
-58 -71 0
-58 -72 0
-58 -73 0
-58 -74 0
-58 -75 0
-59 -60 0
-59 -61 0
-59 -62 0
-59 -63 0
-59 -64 0
-59 -65 0
-59 -66 0
-59 -67 0
-59 -68 0
-59 -69 0
-59 -70 0
-59 -71 0
-59 -72 0
-59 -73 0
-59 -74 0
-59 -75 0
-60 -61 0
-60 -62 0
-60 -63 0
-60 -64 0
-60 -65 0
-60 -66 0
-60 -67 0
-60 -68 0
-60 -69 0
-60 -70 0
-60 -71 0
-60 -72 0
-60 -73 0
-60 -74 0
-60 -75 0
-61 -62 0
-61 -63 0
-61 -64 0
-61 -65 0
-61 -66 0
-61 -67 0
-61 -68 0
-61 -69 0
-61 -70 0
-61 -71 0
-61 -72 0
-61 -73 0
-61 -74 0
-61 -75 0
-62 -63 0
-62 -64 0
-62 -65 0
-62 -66 0
-62 -67 0
-62 -68 0
-62 -69 0
-62 -70 0
-62 -71 0
-62 -72 0
-62 -73 0
-62 -74 0
-62 -75 0
-63 -64 0
-63 -65 0
-63 -66 0
-63 -67 0
-63 -68 0
-63 -69 0
-63 -70 0
-63 -71 0
-63 -72 0
-63 -73 0
-63 -74 0
-63 -75 0
-64 -65 0
-64 -66 0
-64 -67 0
-64 -68 0
-64 -69 0
-64 -70 0
-64 -71 0
-64 -72 0
-64 -73 0
-64 -74 0
-64 -75 0
-65 -66 0
-65 -67 0
-65 -68 0
-65 -69 0
-65 -70 0
-65 -71 0
-65 -72 0
-65 -73 0
-65 -74 0
-65 -75 0
-66 -67 0
-66 -68 0
-66 -69 0
-66 -70 0
-66 -71 0
-66 -72 0
-66 -73 0
-66 -74 0
-66 -75 0
-67 -68 0
-67 -69 0
-67 -70 0
-67 -71 0
-67 -72 0
-67 -73 0
-67 -74 0
-67 -75 0
-68 -69 0
-68 -70 0
-68 -71 0
-68 -72 0
-68 -73 0
-68 -74 0
-68 -75 0
-69 -70 0
-69 -71 0
-69 -72 0
-69 -73 0
-69 -74 0
-69 -75 0
-70 -71 0
-70 -72 0
-70 -73 0
-70 -74 0
-70 -75 0
-71 -72 0
-71 -73 0
-71 -74 0
-71 -75 0
-72 -73 0
-72 -74 0
-72 -75 0
-73 -74 0
-73 -75 0
-74 -75 0
-76 -77 0
-76 -78 0
-76 -79 0
-76 -80 0
-76 -81 0
-76 -82 0
-76 -83 0
-76 -84 0
-76 -85 0
-76 -86 0
-76 -87 0
-76 -88 0
-76 -89 0
-76 -90 0
-76 -91 0
-76 -92 0
-76 -93 0
-76 -94 0
-76 -95 0
-76 -96 0
-76 -97 0
-76 -98 0
-76 -99 0
-76 -100 0
-77 -78 0
-77 -79 0
-77 -80 0
-77 -81 0
-77 -82 0
-77 -83 0
-77 -84 0
-77 -85 0
-77 -86 0
-77 -87 0
-77 -88 0
-77 -89 0
-77 -90 0
-77 -91 0
-77 -92 0
-77 -93 0
-77 -94 0
-77 -95 0
-77 -96 0
-77 -97 0
-77 -98 0
-77 -99 0
-77 -100 0
-78 -79 0
-78 -80 0
-78 -81 0
-78 -82 0
-78 -83 0
-78 -84 0
-78 -85 0
-78 -86 0
-78 -87 0
-78 -88 0
-78 -89 0
-78 -90 0
-78 -91 0
-78 -92 0
-78 -93 0
-78 -94 0
-78 -95 0
-78 -96 0
-78 -97 0
-78 -98 0
-78 -99 0
-78 -100 0
-79 -80 0
-79 -81 0
-79 -82 0
-79 -83 0
-79 -84 0
-79 -85 0
-79 -86 0
-79 -87 0
-79 -88 0
-79 -89 0
-79 -90 0
-79 -91 0
-79 -92 0
-79 -93 0
-79 -94 0
-79 -95 0
-79 -96 0
-79 -97 0
-79 -98 0
-79 -99 0
-79 -100 0
-80 -81 0
-80 -82 0
-80 -83 0
-80 -84 0
-80 -85 0
-80 -86 0
-80 -87 0
-80 -88 0
-80 -89 0
-80 -90 0
-80 -91 0
-80 -92 0
-80 -93 0
-80 -94 0
-80 -95 0
-80 -96 0
-80 -97 0
-80 -98 0
-80 -99 0
-80 -100 0
-81 -82 0
-81 -83 0
-81 -84 0
-81 -85 0
-81 -86 0
-81 -87 0
-81 -88 0
-81 -89 0
-81 -90 0
-81 -91 0
-81 -92 0
-81 -93 0
-81 -94 0
-81 -95 0
-81 -96 0
-81 -97 0
-81 -98 0
-81 -99 0
-81 -100 0
-82 -83 0
-82 -84 0
-82 -85 0
-82 -86 0
-82 -87 0
-82 -88 0
-82 -89 0
-82 -90 0
-82 -91 0
-82 -92 0
-82 -93 0
-82 -94 0
-82 -95 0
-82 -96 0
-82 -97 0
-82 -98 0
-82 -99 0
-82 -100 0
-83 -84 0
-83 -85 0
-83 -86 0
-83 -87 0
-83 -88 0
-83 -89 0
-83 -90 0
-83 -91 0
-83 -92 0
-83 -93 0
-83 -94 0
-83 -95 0
-83 -96 0
-83 -97 0
-83 -98 0
-83 -99 0
-83 -100 0
-84 -85 0
-84 -86 0
-84 -87 0
-84 -88 0
-84 -89 0
-84 -90 0
-84 -91 0
-84 -92 0
-84 -93 0
-84 -94 0
-84 -95 0
-84 -96 0
-84 -97 0
-84 -98 0
-84 -99 0
-84 -100 0
-85 -86 0
-85 -87 0
-85 -88 0
-85 -89 0
-85 -90 0
-85 -91 0
-85 -92 0
-85 -93 0
-85 -94 0
-85 -95 0
-85 -96 0
-85 -97 0
-85 -98 0
-85 -99 0
-85 -100 0
-86 -87 0
-86 -88 0
-86 -89 0
-86 -90 0
-86 -91 0
-86 -92 0
-86 -93 0
-86 -94 0
-86 -95 0
-86 -96 0
-86 -97 0
-86 -98 0
-86 -99 0
-86 -100 0
-87 -88 0
-87 -89 0
-87 -90 0
-87 -91 0
-87 -92 0
-87 -93 0
-87 -94 0
-87 -95 0
-87 -96 0
-87 -97 0
-87 -98 0
-87 -99 0
-87 -100 0
-88 -89 0
-88 -90 0
-88 -91 0
-88 -92 0
-88 -93 0
-88 -94 0
-88 -95 0
-88 -96 0
-88 -97 0
-88 -98 0
-88 -99 0
-88 -100 0
-89 -90 0
-89 -91 0
-89 -92 0
-89 -93 0
-89 -94 0
-89 -95 0
-89 -96 0
-89 -97 0
-89 -98 0
-89 -99 0
-89 -100 0
-90 -91 0
-90 -92 0
-90 -93 0
-90 -94 0
-90 -95 0
-90 -96 0
-90 -97 0
-90 -98 0
-90 -99 0
-90 -100 0
-91 -92 0
-91 -93 0
-91 -94 0
-91 -95 0
-91 -96 0
-91 -97 0
-91 -98 0
-91 -99 0
-91 -100 0
-92 -93 0
-92 -94 0
-92 -95 0
-92 -96 0
-92 -97 0
-92 -98 0
-92 -99 0
-92 -100 0
-93 -94 0
-93 -95 0
-93 -96 0
-93 -97 0
-93 -98 0
-93 -99 0
-93 -100 0
-94 -95 0
-94 -96 0
-94 -97 0
-94 -98 0
-94 -99 0
-94 -100 0
-95 -96 0
-95 -97 0
-95 -98 0
-95 -99 0
-95 -100 0
-96 -97 0
-96 -98 0
-96 -99 0
-96 -100 0
-97 -98 0
-97 -99 0
-97 -100 0
-98 -99 0
-98 -100 0
-99 -100 0
-101 -102 0
-101 -103 0
-101 -104 0
-101 -105 0
-101 -106 0
-101 -107 0
-101 -108 0
-101 -109 0
-101 -110 0
-101 -111 0
-101 -112 0
-101 -113 0
-101 -114 0
-101 -115 0
-101 -116 0
-101 -117 0
-101 -118 0
-101 -119 0
-101 -120 0
-101 -121 0
-101 -122 0
-101 -123 0
-101 -124 0
-101 -125 0
-102 -103 0
-102 -104 0
-102 -105 0
-102 -106 0
-102 -107 0
-102 -108 0
-102 -109 0
-102 -110 0
-102 -111 0
-102 -112 0
-102 -113 0
-102 -114 0
-102 -115 0
-102 -116 0
-102 -117 0
-102 -118 0
-102 -119 0
-102 -120 0
-102 -121 0
-102 -122 0
-102 -123 0
-102 -124 0
-102 -125 0
-103 -104 0
-103 -105 0
-103 -106 0
-103 -107 0
-103 -108 0
-103 -109 0
-103 -110 0
-103 -111 0
-103 -112 0
-103 -113 0
-103 -114 0
-103 -115 0
-103 -116 0
-103 -117 0
-103 -118 0
-103 -119 0
-103 -120 0
-103 -121 0
-103 -122 0
-103 -123 0
-103 -124 0
-103 -125 0
-104 -105 0
-104 -106 0
-104 -107 0
-104 -108 0
-104 -109 0
-104 -110 0
-104 -111 0
-104 -112 0
-104 -113 0
-104 -114 0
-104 -115 0
-104 -116 0
-104 -117 0
-104 -118 0
-104 -119 0
-104 -120 0
-104 -121 0
-104 -122 0
-104 -123 0
-104 -124 0
-104 -125 0
-105 -106 0
-105 -107 0
-105 -108 0
-105 -109 0
-105 -110 0
-105 -111 0
-105 -112 0
-105 -113 0
-105 -114 0
-105 -115 0
-105 -116 0
-105 -117 0
-105 -118 0
-105 -119 0
-105 -120 0
-105 -121 0
-105 -122 0
-105 -123 0
-105 -124 0
-105 -125 0
-106 -107 0
-106 -108 0
-106 -109 0
-106 -110 0
-106 -111 0
-106 -112 0
-106 -113 0
-106 -114 0
-106 -115 0
-106 -116 0
-106 -117 0
-106 -118 0
-106 -119 0
-106 -120 0
-106 -121 0
-106 -122 0
-106 -123 0
-106 -124 0
-106 -125 0
-107 -108 0
-107 -109 0
-107 -110 0
-107 -111 0
-107 -112 0
-107 -113 0
-107 -114 0
-107 -115 0
-107 -116 0
-107 -117 0
-107 -118 0
-107 -119 0
-107 -120 0
-107 -121 0
-107 -122 0
-107 -123 0
-107 -124 0
-107 -125 0
-108 -109 0
-108 -110 0
-108 -111 0
-108 -112 0
-108 -113 0
-108 -114 0
-108 -115 0
-108 -116 0
-108 -117 0
-108 -118 0
-108 -119 0
-108 -120 0
-108 -121 0
-108 -122 0
-108 -123 0
-108 -124 0
-108 -125 0
-109 -110 0
-109 -111 0
-109 -112 0
-109 -113 0
-109 -114 0
-109 -115 0
-109 -116 0
-109 -117 0
-109 -118 0
-109 -119 0
-109 -120 0
-109 -121 0
-109 -122 0
-109 -123 0
-109 -124 0
-109 -125 0
-110 -111 0
-110 -112 0
-110 -113 0
-110 -114 0
-110 -115 0
-110 -116 0
-110 -117 0
-110 -118 0
-110 -119 0
-110 -120 0
-110 -121 0
-110 -122 0
-110 -123 0
-110 -124 0
-110 -125 0
-111 -112 0
-111 -113 0
-111 -114 0
-111 -115 0
-111 -116 0
-111 -117 0
-111 -118 0
-111 -119 0
-111 -120 0
-111 -121 0
-111 -122 0
-111 -123 0
-111 -124 0
-111 -125 0
-112 -113 0
-112 -114 0
-112 -115 0
-112 -116 0
-112 -117 0
-112 -118 0
-112 -119 0
-112 -120 0
-112 -121 0
-112 -122 0
-112 -123 0
-112 -124 0
-112 -125 0
-113 -114 0
-113 -115 0
-113 -116 0
-113 -117 0
-113 -118 0
-113 -119 0
-113 -120 0
-113 -121 0
-113 -122 0
-113 -123 0
-113 -124 0
-113 -125 0
-114 -115 0
-114 -116 0
-114 -117 0
-114 -118 0
-114 -119 0
-114 -120 0
-114 -121 0
-114 -122 0
-114 -123 0
-114 -124 0
-114 -125 0
-115 -116 0
-115 -117 0
-115 -118 0
-115 -119 0
-115 -120 0
-115 -121 0
-115 -122 0
-115 -123 0
-115 -124 0
-115 -125 0
-116 -117 0
-116 -118 0
-116 -119 0
-116 -120 0
-116 -121 0
-116 -122 0
-116 -123 0
-116 -124 0
-116 -125 0
-117 -118 0
-117 -119 0
-117 -120 0
-117 -121 0
-117 -122 0
-117 -123 0
-117 -124 0
-117 -125 0
-118 -119 0
-118 -120 0
-118 -121 0
-118 -122 0
-118 -123 0
-118 -124 0
-118 -125 0
-119 -120 0
-119 -121 0
-119 -122 0
-119 -123 0
-119 -124 0
-119 -125 0
-120 -121 0
-120 -122 0
-120 -123 0
-120 -124 0
-120 -125 0
-121 -122 0
-121 -123 0
-121 -124 0
-121 -125 0
-122 -123 0
-122 -124 0
-122 -125 0
-123 -124 0
-123 -125 0
-124 -125 0
-126 -127 0
-126 -128 0
-126 -129 0
-126 -130 0
-126 -131 0
-126 -132 0
-126 -133 0
-126 -134 0
-126 -135 0
-126 -136 0
-126 -137 0
-126 -138 0
-126 -139 0
-126 -140 0
-126 -141 0
-126 -142 0
-126 -143 0
-126 -144 0
-126 -145 0
-126 -146 0
-126 -147 0
-126 -148 0
-126 -149 0
-126 -150 0
-127 -128 0
-127 -129 0
-127 -130 0
-127 -131 0
-127 -132 0
-127 -133 0
-127 -134 0
-127 -135 0
-127 -136 0
-127 -137 0
-127 -138 0
-127 -139 0
-127 -140 0
-127 -141 0
-127 -142 0
-127 -143 0
-127 -144 0
-127 -145 0
-127 -146 0
-127 -147 0
-127 -148 0
-127 -149 0
-127 -150 0
-128 -129 0
-128 -130 0
-128 -131 0
-128 -132 0
-128 -133 0
-128 -134 0
-128 -135 0
-128 -136 0
-128 -137 0
-128 -138 0
-128 -139 0
-128 -140 0
-128 -141 0
-128 -142 0
-128 -143 0
-128 -144 0
-128 -145 0
-128 -146 0
-128 -147 0
-128 -148 0
-128 -149 0
-128 -150 0
-129 -130 0
-129 -131 0
-129 -132 0
-129 -133 0
-129 -134 0
-129 -135 0
-129 -136 0
-129 -137 0
-129 -138 0
-129 -139 0
-129 -140 0
-129 -141 0
-129 -142 0
-129 -143 0
-129 -144 0
-129 -145 0
-129 -146 0
-129 -147 0
-129 -148 0
-129 -149 0
-129 -150 0
-130 -131 0
-130 -132 0
-130 -133 0
-130 -134 0
-130 -135 0
-130 -136 0
-130 -137 0
-130 -138 0
-130 -139 0
-130 -140 0
-130 -141 0
-130 -142 0
-130 -143 0
-130 -144 0
-130 -145 0
-130 -146 0
-130 -147 0
-130 -148 0
-130 -149 0
-130 -150 0
-131 -132 0
-131 -133 0
-131 -134 0
-131 -135 0
-131 -136 0
-131 -137 0
-131 -138 0
-131 -139 0
-131 -140 0
-131 -141 0
-131 -142 0
-131 -143 0
-131 -144 0
-131 -145 0
-131 -146 0
-131 -147 0
-131 -148 0
-131 -149 0
-131 -150 0
-132 -133 0
-132 -134 0
-132 -135 0
-132 -136 0
-132 -137 0
-132 -138 0
-132 -139 0
-132 -140 0
-132 -141 0
-132 -142 0
-132 -143 0
-132 -144 0
-132 -145 0
-132 -146 0
-132 -147 0
-132 -148 0
-132 -149 0
-132 -150 0
-133 -134 0
-133 -135 0
-133 -136 0
-133 -137 0
-133 -138 0
-133 -139 0
-133 -140 0
-133 -141 0
-133 -142 0
-133 -143 0
-133 -144 0
-133 -145 0
-133 -146 0
-133 -147 0
-133 -148 0
-133 -149 0
-133 -150 0
-134 -135 0
-134 -136 0
-134 -137 0
-134 -138 0
-134 -139 0
-134 -140 0
-134 -141 0
-134 -142 0
-134 -143 0
-134 -144 0
-134 -145 0
-134 -146 0
-134 -147 0
-134 -148 0
-134 -149 0
-134 -150 0
-135 -136 0
-135 -137 0
-135 -138 0
-135 -139 0
-135 -140 0
-135 -141 0
-135 -142 0
-135 -143 0
-135 -144 0
-135 -145 0
-135 -146 0
-135 -147 0
-135 -148 0
-135 -149 0
-135 -150 0
-136 -137 0
-136 -138 0
-136 -139 0
-136 -140 0
-136 -141 0
-136 -142 0
-136 -143 0
-136 -144 0
-136 -145 0
-136 -146 0
-136 -147 0
-136 -148 0
-136 -149 0
-136 -150 0
-137 -138 0
-137 -139 0
-137 -140 0
-137 -141 0
-137 -142 0
-137 -143 0
-137 -144 0
-137 -145 0
-137 -146 0
-137 -147 0
-137 -148 0
-137 -149 0
-137 -150 0
-138 -139 0
-138 -140 0
-138 -141 0
-138 -142 0
-138 -143 0
-138 -144 0
-138 -145 0
-138 -146 0
-138 -147 0
-138 -148 0
-138 -149 0
-138 -150 0
-139 -140 0
-139 -141 0
-139 -142 0
-139 -143 0
-139 -144 0
-139 -145 0
-139 -146 0
-139 -147 0
-139 -148 0
-139 -149 0
-139 -150 0
-140 -141 0
-140 -142 0
-140 -143 0
-140 -144 0
-140 -145 0
-140 -146 0
-140 -147 0
-140 -148 0
-140 -149 0
-140 -150 0
-141 -142 0
-141 -143 0
-141 -144 0
-141 -145 0
-141 -146 0
-141 -147 0
-141 -148 0
-141 -149 0
-141 -150 0
-142 -143 0
-142 -144 0
-142 -145 0
-142 -146 0
-142 -147 0
-142 -148 0
-142 -149 0
-142 -150 0
-143 -144 0
-143 -145 0
-143 -146 0
-143 -147 0
-143 -148 0
-143 -149 0
-143 -150 0
-144 -145 0
-144 -146 0
-144 -147 0
-144 -148 0
-144 -149 0
-144 -150 0
-145 -146 0
-145 -147 0
-145 -148 0
-145 -149 0
-145 -150 0
-146 -147 0
-146 -148 0
-146 -149 0
-146 -150 0
-147 -148 0
-147 -149 0
-147 -150 0
-148 -149 0
-148 -150 0
-149 -150 0
-151 -152 0
-151 -153 0
-151 -154 0
-151 -155 0
-151 -156 0
-151 -157 0
-151 -158 0
-151 -159 0
-151 -160 0
-151 -161 0
-151 -162 0
-151 -163 0
-151 -164 0
-151 -165 0
-151 -166 0
-151 -167 0
-151 -168 0
-151 -169 0
-151 -170 0
-151 -171 0
-151 -172 0
-151 -173 0
-151 -174 0
-151 -175 0
-152 -153 0
-152 -154 0
-152 -155 0
-152 -156 0
-152 -157 0
-152 -158 0
-152 -159 0
-152 -160 0
-152 -161 0
-152 -162 0
-152 -163 0
-152 -164 0
-152 -165 0
-152 -166 0
-152 -167 0
-152 -168 0
-152 -169 0
-152 -170 0
-152 -171 0
-152 -172 0
-152 -173 0
-152 -174 0
-152 -175 0
-153 -154 0
-153 -155 0
-153 -156 0
-153 -157 0
-153 -158 0
-153 -159 0
-153 -160 0
-153 -161 0
-153 -162 0
-153 -163 0
-153 -164 0
-153 -165 0
-153 -166 0
-153 -167 0
-153 -168 0
-153 -169 0
-153 -170 0
-153 -171 0
-153 -172 0
-153 -173 0
-153 -174 0
-153 -175 0
-154 -155 0
-154 -156 0
-154 -157 0
-154 -158 0
-154 -159 0
-154 -160 0
-154 -161 0
-154 -162 0
-154 -163 0
-154 -164 0
-154 -165 0
-154 -166 0
-154 -167 0
-154 -168 0
-154 -169 0
-154 -170 0
-154 -171 0
-154 -172 0
-154 -173 0
-154 -174 0
-154 -175 0
-155 -156 0
-155 -157 0
-155 -158 0
-155 -159 0
-155 -160 0
-155 -161 0
-155 -162 0
-155 -163 0
-155 -164 0
-155 -165 0
-155 -166 0
-155 -167 0
-155 -168 0
-155 -169 0
-155 -170 0
-155 -171 0
-155 -172 0
-155 -173 0
-155 -174 0
-155 -175 0
-156 -157 0
-156 -158 0
-156 -159 0
-156 -160 0
-156 -161 0
-156 -162 0
-156 -163 0
-156 -164 0
-156 -165 0
-156 -166 0
-156 -167 0
-156 -168 0
-156 -169 0
-156 -170 0
-156 -171 0
-156 -172 0
-156 -173 0
-156 -174 0
-156 -175 0
-157 -158 0
-157 -159 0
-157 -160 0
-157 -161 0
-157 -162 0
-157 -163 0
-157 -164 0
-157 -165 0
-157 -166 0
-157 -167 0
-157 -168 0
-157 -169 0
-157 -170 0
-157 -171 0
-157 -172 0
-157 -173 0
-157 -174 0
-157 -175 0
-158 -159 0
-158 -160 0
-158 -161 0
-158 -162 0
-158 -163 0
-158 -164 0
-158 -165 0
-158 -166 0
-158 -167 0
-158 -168 0
-158 -169 0
-158 -170 0
-158 -171 0
-158 -172 0
-158 -173 0
-158 -174 0
-158 -175 0
-159 -160 0
-159 -161 0
-159 -162 0
-159 -163 0
-159 -164 0
-159 -165 0
-159 -166 0
-159 -167 0
-159 -168 0
-159 -169 0
-159 -170 0
-159 -171 0
-159 -172 0
-159 -173 0
-159 -174 0
-159 -175 0
-160 -161 0
-160 -162 0
-160 -163 0
-160 -164 0
-160 -165 0
-160 -166 0
-160 -167 0
-160 -168 0
-160 -169 0
-160 -170 0
-160 -171 0
-160 -172 0
-160 -173 0
-160 -174 0
-160 -175 0
-161 -162 0
-161 -163 0
-161 -164 0
-161 -165 0
-161 -166 0
-161 -167 0
-161 -168 0
-161 -169 0
-161 -170 0
-161 -171 0
-161 -172 0
-161 -173 0
-161 -174 0
-161 -175 0
-162 -163 0
-162 -164 0
-162 -165 0
-162 -166 0
-162 -167 0
-162 -168 0
-162 -169 0
-162 -170 0
-162 -171 0
-162 -172 0
-162 -173 0
-162 -174 0
-162 -175 0
-163 -164 0
-163 -165 0
-163 -166 0
-163 -167 0
-163 -168 0
-163 -169 0
-163 -170 0
-163 -171 0
-163 -172 0
-163 -173 0
-163 -174 0
-163 -175 0
-164 -165 0
-164 -166 0
-164 -167 0
-164 -168 0
-164 -169 0
-164 -170 0
-164 -171 0
-164 -172 0
-164 -173 0
-164 -174 0
-164 -175 0
-165 -166 0
-165 -167 0
-165 -168 0
-165 -169 0
-165 -170 0
-165 -171 0
-165 -172 0
-165 -173 0
-165 -174 0
-165 -175 0
-166 -167 0
-166 -168 0
-166 -169 0
-166 -170 0
-166 -171 0
-166 -172 0
-166 -173 0
-166 -174 0
-166 -175 0
-167 -168 0
-167 -169 0
-167 -170 0
-167 -171 0
-167 -172 0
-167 -173 0
-167 -174 0
-167 -175 0
-168 -169 0
-168 -170 0
-168 -171 0
-168 -172 0
-168 -173 0
-168 -174 0
-168 -175 0
-169 -170 0
-169 -171 0
-169 -172 0
-169 -173 0
-169 -174 0
-169 -175 0
-170 -171 0
-170 -172 0
-170 -173 0
-170 -174 0
-170 -175 0
-171 -172 0
-171 -173 0
-171 -174 0
-171 -175 0
-172 -173 0
-172 -174 0
-172 -175 0
-173 -174 0
-173 -175 0
-174 -175 0
-27 -51 0
-28 -51 0
-29 -51 0
-30 -51 0
-31 -51 0
-32 -51 0
-33 -51 0
-34 -51 0
-35 -51 0
-36 -51 0
-37 -51 0
-38 -51 0
-39 -51 0
-40 -51 0
-41 -51 0
-42 -51 0
-43 -51 0
-44 -51 0
-45 -51 0
-46 -51 0
-47 -51 0
-48 -51 0
-49 -51 0
-50 -51 0
-28 -52 0
-29 -52 0
-30 -52 0
-31 -52 0
-32 -52 0
-33 -52 0
-34 -52 0
-35 -52 0
-36 -52 0
-37 -52 0
-38 -52 0
-39 -52 0
-40 -52 0
-41 -52 0
-42 -52 0
-43 -52 0
-44 -52 0
-45 -52 0
-46 -52 0
-47 -52 0
-48 -52 0
-49 -52 0
-50 -52 0
-29 -53 0
-30 -53 0
-31 -53 0
-32 -53 0
-33 -53 0
-34 -53 0
-35 -53 0
-36 -53 0
-37 -53 0
-38 -53 0
-39 -53 0
-40 -53 0
-41 -53 0
-42 -53 0
-43 -53 0
-44 -53 0
-45 -53 0
-46 -53 0
-47 -53 0
-48 -53 0
-49 -53 0
-50 -53 0
-30 -54 0
-31 -54 0
-32 -54 0
-33 -54 0
-34 -54 0
-35 -54 0
-36 -54 0
-37 -54 0
-38 -54 0
-39 -54 0
-40 -54 0
-41 -54 0
-42 -54 0
-43 -54 0
-44 -54 0
-45 -54 0
-46 -54 0
-47 -54 0
-48 -54 0
-49 -54 0
-50 -54 0
-31 -55 0
-32 -55 0
-33 -55 0
-34 -55 0
-35 -55 0
-36 -55 0
-37 -55 0
-38 -55 0
-39 -55 0
-40 -55 0
-41 -55 0
-42 -55 0
-43 -55 0
-44 -55 0
-45 -55 0
-46 -55 0
-47 -55 0
-48 -55 0
-49 -55 0
-50 -55 0
-32 -56 0
-33 -56 0
-34 -56 0
-35 -56 0
-36 -56 0
-37 -56 0
-38 -56 0
-39 -56 0
-40 -56 0
-41 -56 0
-42 -56 0
-43 -56 0
-44 -56 0
-45 -56 0
-46 -56 0
-47 -56 0
-48 -56 0
-49 -56 0
-50 -56 0
-33 -57 0
-34 -57 0
-35 -57 0
-36 -57 0
-37 -57 0
-38 -57 0
-39 -57 0
-40 -57 0
-41 -57 0
-42 -57 0
-43 -57 0
-44 -57 0
-45 -57 0
-46 -57 0
-47 -57 0
-48 -57 0
-49 -57 0
-50 -57 0
-34 -58 0
-35 -58 0
-36 -58 0
-37 -58 0
-38 -58 0
-39 -58 0
-40 -58 0
-41 -58 0
-42 -58 0
-43 -58 0
-44 -58 0
-45 -58 0
-46 -58 0
-47 -58 0
-48 -58 0
-49 -58 0
-50 -58 0
-35 -59 0
-36 -59 0
-37 -59 0
-38 -59 0
-39 -59 0
-40 -59 0
-41 -59 0
-42 -59 0
-43 -59 0
-44 -59 0
-45 -59 0
-46 -59 0
-47 -59 0
-48 -59 0
-49 -59 0
-50 -59 0
-36 -60 0
-37 -60 0
-38 -60 0
-39 -60 0
-40 -60 0
-41 -60 0
-42 -60 0
-43 -60 0
-44 -60 0
-45 -60 0
-46 -60 0
-47 -60 0
-48 -60 0
-49 -60 0
-50 -60 0
-37 -61 0
-38 -61 0
-39 -61 0
-40 -61 0
-41 -61 0
-42 -61 0
-43 -61 0
-44 -61 0
-45 -61 0
-46 -61 0
-47 -61 0
-48 -61 0
-49 -61 0
-50 -61 0
-38 -62 0
-39 -62 0
-40 -62 0
-41 -62 0
-42 -62 0
-43 -62 0
-44 -62 0
-45 -62 0
-46 -62 0
-47 -62 0
-48 -62 0
-49 -62 0
-50 -62 0
-39 -63 0
-40 -63 0
-41 -63 0
-42 -63 0
-43 -63 0
-44 -63 0
-45 -63 0
-46 -63 0
-47 -63 0
-48 -63 0
-49 -63 0
-50 -63 0
-40 -64 0
-41 -64 0
-42 -64 0
-43 -64 0
-44 -64 0
-45 -64 0
-46 -64 0
-47 -64 0
-48 -64 0
-49 -64 0
-50 -64 0
-41 -65 0
-42 -65 0
-43 -65 0
-44 -65 0
-45 -65 0
-46 -65 0
-47 -65 0
-48 -65 0
-49 -65 0
-50 -65 0
-42 -66 0
-43 -66 0
-44 -66 0
-45 -66 0
-46 -66 0
-47 -66 0
-48 -66 0
-49 -66 0
-50 -66 0
-43 -67 0
-44 -67 0
-45 -67 0
-46 -67 0
-47 -67 0
-48 -67 0
-49 -67 0
-50 -67 0
-44 -68 0
-45 -68 0
-46 -68 0
-47 -68 0
-48 -68 0
-49 -68 0
-50 -68 0
-45 -69 0
-46 -69 0
-47 -69 0
-48 -69 0
-49 -69 0
-50 -69 0
-46 -70 0
-47 -70 0
-48 -70 0
-49 -70 0
-50 -70 0
-47 -71 0
-48 -71 0
-49 -71 0
-50 -71 0
-48 -72 0
-49 -72 0
-50 -72 0
-49 -73 0
-50 -73 0
-50 -74 0
-27 -76 0
-28 -76 0
-29 -76 0
-30 -76 0
-31 -76 0
-32 -76 0
-33 -76 0
-34 -76 0
-35 -76 0
-36 -76 0
-37 -76 0
-38 -76 0
-39 -76 0
-40 -76 0
-41 -76 0
-42 -76 0
-43 -76 0
-44 -76 0
-45 -76 0
-46 -76 0
-47 -76 0
-48 -76 0
-49 -76 0
-50 -76 0
-28 -77 0
-29 -77 0
-30 -77 0
-31 -77 0
-32 -77 0
-33 -77 0
-34 -77 0
-35 -77 0
-36 -77 0
-37 -77 0
-38 -77 0
-39 -77 0
-40 -77 0
-41 -77 0
-42 -77 0
-43 -77 0
-44 -77 0
-45 -77 0
-46 -77 0
-47 -77 0
-48 -77 0
-49 -77 0
-50 -77 0
-29 -78 0
-30 -78 0
-31 -78 0
-32 -78 0
-33 -78 0
-34 -78 0
-35 -78 0
-36 -78 0
-37 -78 0
-38 -78 0
-39 -78 0
-40 -78 0
-41 -78 0
-42 -78 0
-43 -78 0
-44 -78 0
-45 -78 0
-46 -78 0
-47 -78 0
-48 -78 0
-49 -78 0
-50 -78 0
-30 -79 0
-31 -79 0
-32 -79 0
-33 -79 0
-34 -79 0
-35 -79 0
-36 -79 0
-37 -79 0
-38 -79 0
-39 -79 0
-40 -79 0
-41 -79 0
-42 -79 0
-43 -79 0
-44 -79 0
-45 -79 0
-46 -79 0
-47 -79 0
-48 -79 0
-49 -79 0
-50 -79 0
-31 -80 0
-32 -80 0
-33 -80 0
-34 -80 0
-35 -80 0
-36 -80 0
-37 -80 0
-38 -80 0
-39 -80 0
-40 -80 0
-41 -80 0
-42 -80 0
-43 -80 0
-44 -80 0
-45 -80 0
-46 -80 0
-47 -80 0
-48 -80 0
-49 -80 0
-50 -80 0
-32 -81 0
-33 -81 0
-34 -81 0
-35 -81 0
-36 -81 0
-37 -81 0
-38 -81 0
-39 -81 0
-40 -81 0
-41 -81 0
-42 -81 0
-43 -81 0
-44 -81 0
-45 -81 0
-46 -81 0
-47 -81 0
-48 -81 0
-49 -81 0
-50 -81 0
-33 -82 0
-34 -82 0
-35 -82 0
-36 -82 0
-37 -82 0
-38 -82 0
-39 -82 0
-40 -82 0
-41 -82 0
-42 -82 0
-43 -82 0
-44 -82 0
-45 -82 0
-46 -82 0
-47 -82 0
-48 -82 0
-49 -82 0
-50 -82 0
-34 -83 0
-35 -83 0
-36 -83 0
-37 -83 0
-38 -83 0
-39 -83 0
-40 -83 0
-41 -83 0
-42 -83 0
-43 -83 0
-44 -83 0
-45 -83 0
-46 -83 0
-47 -83 0
-48 -83 0
-49 -83 0
-50 -83 0
-35 -84 0
-36 -84 0
-37 -84 0
-38 -84 0
-39 -84 0
-40 -84 0
-41 -84 0
-42 -84 0
-43 -84 0
-44 -84 0
-45 -84 0
-46 -84 0
-47 -84 0
-48 -84 0
-49 -84 0
-50 -84 0
-36 -85 0
-37 -85 0
-38 -85 0
-39 -85 0
-40 -85 0
-41 -85 0
-42 -85 0
-43 -85 0
-44 -85 0
-45 -85 0
-46 -85 0
-47 -85 0
-48 -85 0
-49 -85 0
-50 -85 0
-37 -86 0
-38 -86 0
-39 -86 0
-40 -86 0
-41 -86 0
-42 -86 0
-43 -86 0
-44 -86 0
-45 -86 0
-46 -86 0
-47 -86 0
-48 -86 0
-49 -86 0
-50 -86 0
-38 -87 0
-39 -87 0
-40 -87 0
-41 -87 0
-42 -87 0
-43 -87 0
-44 -87 0
-45 -87 0
-46 -87 0
-47 -87 0
-48 -87 0
-49 -87 0
-50 -87 0
-39 -88 0
-40 -88 0
-41 -88 0
-42 -88 0
-43 -88 0
-44 -88 0
-45 -88 0
-46 -88 0
-47 -88 0
-48 -88 0
-49 -88 0
-50 -88 0
-40 -89 0
-41 -89 0
-42 -89 0
-43 -89 0
-44 -89 0
-45 -89 0
-46 -89 0
-47 -89 0
-48 -89 0
-49 -89 0
-50 -89 0
-41 -90 0
-42 -90 0
-43 -90 0
-44 -90 0
-45 -90 0
-46 -90 0
-47 -90 0
-48 -90 0
-49 -90 0
-50 -90 0
-42 -91 0
-43 -91 0
-44 -91 0
-45 -91 0
-46 -91 0
-47 -91 0
-48 -91 0
-49 -91 0
-50 -91 0
-43 -92 0
-44 -92 0
-45 -92 0
-46 -92 0
-47 -92 0
-48 -92 0
-49 -92 0
-50 -92 0
-44 -93 0
-45 -93 0
-46 -93 0
-47 -93 0
-48 -93 0
-49 -93 0
-50 -93 0
-45 -94 0
-46 -94 0
-47 -94 0
-48 -94 0
-49 -94 0
-50 -94 0
-46 -95 0
-47 -95 0
-48 -95 0
-49 -95 0
-50 -95 0
-47 -96 0
-48 -96 0
-49 -96 0
-50 -96 0
-48 -97 0
-49 -97 0
-50 -97 0
-49 -98 0
-50 -98 0
-50 -99 0
-27 -101 0
-28 -101 0
-29 -101 0
-30 -101 0
-31 -101 0
-32 -101 0
-33 -101 0
-34 -101 0
-35 -101 0
-36 -101 0
-37 -101 0
-38 -101 0
-39 -101 0
-40 -101 0
-41 -101 0
-42 -101 0
-43 -101 0
-44 -101 0
-45 -101 0
-46 -101 0
-47 -101 0
-48 -101 0
-49 -101 0
-50 -101 0
-28 -102 0
-29 -102 0
-30 -102 0
-31 -102 0
-32 -102 0
-33 -102 0
-34 -102 0
-35 -102 0
-36 -102 0
-37 -102 0
-38 -102 0
-39 -102 0
-40 -102 0
-41 -102 0
-42 -102 0
-43 -102 0
-44 -102 0
-45 -102 0
-46 -102 0
-47 -102 0
-48 -102 0
-49 -102 0
-50 -102 0
-29 -103 0
-30 -103 0
-31 -103 0
-32 -103 0
-33 -103 0
-34 -103 0
-35 -103 0
-36 -103 0
-37 -103 0
-38 -103 0
-39 -103 0
-40 -103 0
-41 -103 0
-42 -103 0
-43 -103 0
-44 -103 0
-45 -103 0
-46 -103 0
-47 -103 0
-48 -103 0
-49 -103 0
-50 -103 0
-30 -104 0
-31 -104 0
-32 -104 0
-33 -104 0
-34 -104 0
-35 -104 0
-36 -104 0
-37 -104 0
-38 -104 0
-39 -104 0
-40 -104 0
-41 -104 0
-42 -104 0
-43 -104 0
-44 -104 0
-45 -104 0
-46 -104 0
-47 -104 0
-48 -104 0
-49 -104 0
-50 -104 0
-31 -105 0
-32 -105 0
-33 -105 0
-34 -105 0
-35 -105 0
-36 -105 0
-37 -105 0
-38 -105 0
-39 -105 0
-40 -105 0
-41 -105 0
-42 -105 0
-43 -105 0
-44 -105 0
-45 -105 0
-46 -105 0
-47 -105 0
-48 -105 0
-49 -105 0
-50 -105 0
-32 -106 0
-33 -106 0
-34 -106 0
-35 -106 0
-36 -106 0
-37 -106 0
-38 -106 0
-39 -106 0
-40 -106 0
-41 -106 0
-42 -106 0
-43 -106 0
-44 -106 0
-45 -106 0
-46 -106 0
-47 -106 0
-48 -106 0
-49 -106 0
-50 -106 0
-33 -107 0
-34 -107 0
-35 -107 0
-36 -107 0
-37 -107 0
-38 -107 0
-39 -107 0
-40 -107 0
-41 -107 0
-42 -107 0
-43 -107 0
-44 -107 0
-45 -107 0
-46 -107 0
-47 -107 0
-48 -107 0
-49 -107 0
-50 -107 0
-34 -108 0
-35 -108 0
-36 -108 0
-37 -108 0
-38 -108 0
-39 -108 0
-40 -108 0
-41 -108 0
-42 -108 0
-43 -108 0
-44 -108 0
-45 -108 0
-46 -108 0
-47 -108 0
-48 -108 0
-49 -108 0
-50 -108 0
-35 -109 0
-36 -109 0
-37 -109 0
-38 -109 0
-39 -109 0
-40 -109 0
-41 -109 0
-42 -109 0
-43 -109 0
-44 -109 0
-45 -109 0
-46 -109 0
-47 -109 0
-48 -109 0
-49 -109 0
-50 -109 0
-36 -110 0
-37 -110 0
-38 -110 0
-39 -110 0
-40 -110 0
-41 -110 0
-42 -110 0
-43 -110 0
-44 -110 0
-45 -110 0
-46 -110 0
-47 -110 0
-48 -110 0
-49 -110 0
-50 -110 0
-37 -111 0
-38 -111 0
-39 -111 0
-40 -111 0
-41 -111 0
-42 -111 0
-43 -111 0
-44 -111 0
-45 -111 0
-46 -111 0
-47 -111 0
-48 -111 0
-49 -111 0
-50 -111 0
-38 -112 0
-39 -112 0
-40 -112 0
-41 -112 0
-42 -112 0
-43 -112 0
-44 -112 0
-45 -112 0
-46 -112 0
-47 -112 0
-48 -112 0
-49 -112 0
-50 -112 0
-39 -113 0
-40 -113 0
-41 -113 0
-42 -113 0
-43 -113 0
-44 -113 0
-45 -113 0
-46 -113 0
-47 -113 0
-48 -113 0
-49 -113 0
-50 -113 0
-40 -114 0
-41 -114 0
-42 -114 0
-43 -114 0
-44 -114 0
-45 -114 0
-46 -114 0
-47 -114 0
-48 -114 0
-49 -114 0
-50 -114 0
-41 -115 0
-42 -115 0
-43 -115 0
-44 -115 0
-45 -115 0
-46 -115 0
-47 -115 0
-48 -115 0
-49 -115 0
-50 -115 0
-42 -116 0
-43 -116 0
-44 -116 0
-45 -116 0
-46 -116 0
-47 -116 0
-48 -116 0
-49 -116 0
-50 -116 0
-43 -117 0
-44 -117 0
-45 -117 0
-46 -117 0
-47 -117 0
-48 -117 0
-49 -117 0
-50 -117 0
-44 -118 0
-45 -118 0
-46 -118 0
-47 -118 0
-48 -118 0
-49 -118 0
-50 -118 0
-45 -119 0
-46 -119 0
-47 -119 0
-48 -119 0
-49 -119 0
-50 -119 0
-46 -120 0
-47 -120 0
-48 -120 0
-49 -120 0
-50 -120 0
-47 -121 0
-48 -121 0
-49 -121 0
-50 -121 0
-48 -122 0
-49 -122 0
-50 -122 0
-49 -123 0
-50 -123 0
-50 -124 0
-27 -126 0
-28 -126 0
-29 -126 0
-30 -126 0
-31 -126 0
-32 -126 0
-33 -126 0
-34 -126 0
-35 -126 0
-36 -126 0
-37 -126 0
-38 -126 0
-39 -126 0
-40 -126 0
-41 -126 0
-42 -126 0
-43 -126 0
-44 -126 0
-45 -126 0
-46 -126 0
-47 -126 0
-48 -126 0
-49 -126 0
-50 -126 0
-28 -127 0
-29 -127 0
-30 -127 0
-31 -127 0
-32 -127 0
-33 -127 0
-34 -127 0
-35 -127 0
-36 -127 0
-37 -127 0
-38 -127 0
-39 -127 0
-40 -127 0
-41 -127 0
-42 -127 0
-43 -127 0
-44 -127 0
-45 -127 0
-46 -127 0
-47 -127 0
-48 -127 0
-49 -127 0
-50 -127 0
-29 -128 0
-30 -128 0
-31 -128 0
-32 -128 0
-33 -128 0
-34 -128 0
-35 -128 0
-36 -128 0
-37 -128 0
-38 -128 0
-39 -128 0
-40 -128 0
-41 -128 0
-42 -128 0
-43 -128 0
-44 -128 0
-45 -128 0
-46 -128 0
-47 -128 0
-48 -128 0
-49 -128 0
-50 -128 0
-30 -129 0
-31 -129 0
-32 -129 0
-33 -129 0
-34 -129 0
-35 -129 0
-36 -129 0
-37 -129 0
-38 -129 0
-39 -129 0
-40 -129 0
-41 -129 0
-42 -129 0
-43 -129 0
-44 -129 0
-45 -129 0
-46 -129 0
-47 -129 0
-48 -129 0
-49 -129 0
-50 -129 0
-31 -130 0
-32 -130 0
-33 -130 0
-34 -130 0
-35 -130 0
-36 -130 0
-37 -130 0
-38 -130 0
-39 -130 0
-40 -130 0
-41 -130 0
-42 -130 0
-43 -130 0
-44 -130 0
-45 -130 0
-46 -130 0
-47 -130 0
-48 -130 0
-49 -130 0
-50 -130 0
-32 -131 0
-33 -131 0
-34 -131 0
-35 -131 0
-36 -131 0
-37 -131 0
-38 -131 0
-39 -131 0
-40 -131 0
-41 -131 0
-42 -131 0
-43 -131 0
-44 -131 0
-45 -131 0
-46 -131 0
-47 -131 0
-48 -131 0
-49 -131 0
-50 -131 0
-33 -132 0
-34 -132 0
-35 -132 0
-36 -132 0
-37 -132 0
-38 -132 0
-39 -132 0
-40 -132 0
-41 -132 0
-42 -132 0
-43 -132 0
-44 -132 0
-45 -132 0
-46 -132 0
-47 -132 0
-48 -132 0
-49 -132 0
-50 -132 0
-34 -133 0
-35 -133 0
-36 -133 0
-37 -133 0
-38 -133 0
-39 -133 0
-40 -133 0
-41 -133 0
-42 -133 0
-43 -133 0
-44 -133 0
-45 -133 0
-46 -133 0
-47 -133 0
-48 -133 0
-49 -133 0
-50 -133 0
-35 -134 0
-36 -134 0
-37 -134 0
-38 -134 0
-39 -134 0
-40 -134 0
-41 -134 0
-42 -134 0
-43 -134 0
-44 -134 0
-45 -134 0
-46 -134 0
-47 -134 0
-48 -134 0
-49 -134 0
-50 -134 0
-36 -135 0
-37 -135 0
-38 -135 0
-39 -135 0
-40 -135 0
-41 -135 0
-42 -135 0
-43 -135 0
-44 -135 0
-45 -135 0
-46 -135 0
-47 -135 0
-48 -135 0
-49 -135 0
-50 -135 0
-37 -136 0
-38 -136 0
-39 -136 0
-40 -136 0
-41 -136 0
-42 -136 0
-43 -136 0
-44 -136 0
-45 -136 0
-46 -136 0
-47 -136 0
-48 -136 0
-49 -136 0
-50 -136 0
-38 -137 0
-39 -137 0
-40 -137 0
-41 -137 0
-42 -137 0
-43 -137 0
-44 -137 0
-45 -137 0
-46 -137 0
-47 -137 0
-48 -137 0
-49 -137 0
-50 -137 0
-39 -138 0
-40 -138 0
-41 -138 0
-42 -138 0
-43 -138 0
-44 -138 0
-45 -138 0
-46 -138 0
-47 -138 0
-48 -138 0
-49 -138 0
-50 -138 0
-40 -139 0
-41 -139 0
-42 -139 0
-43 -139 0
-44 -139 0
-45 -139 0
-46 -139 0
-47 -139 0
-48 -139 0
-49 -139 0
-50 -139 0
-41 -140 0
-42 -140 0
-43 -140 0
-44 -140 0
-45 -140 0
-46 -140 0
-47 -140 0
-48 -140 0
-49 -140 0
-50 -140 0
-42 -141 0
-43 -141 0
-44 -141 0
-45 -141 0
-46 -141 0
-47 -141 0
-48 -141 0
-49 -141 0
-50 -141 0
-43 -142 0
-44 -142 0
-45 -142 0
-46 -142 0
-47 -142 0
-48 -142 0
-49 -142 0
-50 -142 0
-44 -143 0
-45 -143 0
-46 -143 0
-47 -143 0
-48 -143 0
-49 -143 0
-50 -143 0
-45 -144 0
-46 -144 0
-47 -144 0
-48 -144 0
-49 -144 0
-50 -144 0
-46 -145 0
-47 -145 0
-48 -145 0
-49 -145 0
-50 -145 0
-47 -146 0
-48 -146 0
-49 -146 0
-50 -146 0
-48 -147 0
-49 -147 0
-50 -147 0
-49 -148 0
-50 -148 0
-50 -149 0
-27 -151 0
-28 -151 0
-29 -151 0
-30 -151 0
-31 -151 0
-32 -151 0
-33 -151 0
-34 -151 0
-35 -151 0
-36 -151 0
-37 -151 0
-38 -151 0
-39 -151 0
-40 -151 0
-41 -151 0
-42 -151 0
-43 -151 0
-44 -151 0
-45 -151 0
-46 -151 0
-47 -151 0
-48 -151 0
-49 -151 0
-50 -151 0
-28 -152 0
-29 -152 0
-30 -152 0
-31 -152 0
-32 -152 0
-33 -152 0
-34 -152 0
-35 -152 0
-36 -152 0
-37 -152 0
-38 -152 0
-39 -152 0
-40 -152 0
-41 -152 0
-42 -152 0
-43 -152 0
-44 -152 0
-45 -152 0
-46 -152 0
-47 -152 0
-48 -152 0
-49 -152 0
-50 -152 0
-29 -153 0
-30 -153 0
-31 -153 0
-32 -153 0
-33 -153 0
-34 -153 0
-35 -153 0
-36 -153 0
-37 -153 0
-38 -153 0
-39 -153 0
-40 -153 0
-41 -153 0
-42 -153 0
-43 -153 0
-44 -153 0
-45 -153 0
-46 -153 0
-47 -153 0
-48 -153 0
-49 -153 0
-50 -153 0
-30 -154 0
-31 -154 0
-32 -154 0
-33 -154 0
-34 -154 0
-35 -154 0
-36 -154 0
-37 -154 0
-38 -154 0
-39 -154 0
-40 -154 0
-41 -154 0
-42 -154 0
-43 -154 0
-44 -154 0
-45 -154 0
-46 -154 0
-47 -154 0
-48 -154 0
-49 -154 0
-50 -154 0
-31 -155 0
-32 -155 0
-33 -155 0
-34 -155 0
-35 -155 0
-36 -155 0
-37 -155 0
-38 -155 0
-39 -155 0
-40 -155 0
-41 -155 0
-42 -155 0
-43 -155 0
-44 -155 0
-45 -155 0
-46 -155 0
-47 -155 0
-48 -155 0
-49 -155 0
-50 -155 0
-32 -156 0
-33 -156 0
-34 -156 0
-35 -156 0
-36 -156 0
-37 -156 0
-38 -156 0
-39 -156 0
-40 -156 0
-41 -156 0
-42 -156 0
-43 -156 0
-44 -156 0
-45 -156 0
-46 -156 0
-47 -156 0
-48 -156 0
-49 -156 0
-50 -156 0
-33 -157 0
-34 -157 0
-35 -157 0
-36 -157 0
-37 -157 0
-38 -157 0
-39 -157 0
-40 -157 0
-41 -157 0
-42 -157 0
-43 -157 0
-44 -157 0
-45 -157 0
-46 -157 0
-47 -157 0
-48 -157 0
-49 -157 0
-50 -157 0
-34 -158 0
-35 -158 0
-36 -158 0
-37 -158 0
-38 -158 0
-39 -158 0
-40 -158 0
-41 -158 0
-42 -158 0
-43 -158 0
-44 -158 0
-45 -158 0
-46 -158 0
-47 -158 0
-48 -158 0
-49 -158 0
-50 -158 0
-35 -159 0
-36 -159 0
-37 -159 0
-38 -159 0
-39 -159 0
-40 -159 0
-41 -159 0
-42 -159 0
-43 -159 0
-44 -159 0
-45 -159 0
-46 -159 0
-47 -159 0
-48 -159 0
-49 -159 0
-50 -159 0
-36 -160 0
-37 -160 0
-38 -160 0
-39 -160 0
-40 -160 0
-41 -160 0
-42 -160 0
-43 -160 0
-44 -160 0
-45 -160 0
-46 -160 0
-47 -160 0
-48 -160 0
-49 -160 0
-50 -160 0
-37 -161 0
-38 -161 0
-39 -161 0
-40 -161 0
-41 -161 0
-42 -161 0
-43 -161 0
-44 -161 0
-45 -161 0
-46 -161 0
-47 -161 0
-48 -161 0
-49 -161 0
-50 -161 0
-38 -162 0
-39 -162 0
-40 -162 0
-41 -162 0
-42 -162 0
-43 -162 0
-44 -162 0
-45 -162 0
-46 -162 0
-47 -162 0
-48 -162 0
-49 -162 0
-50 -162 0
-39 -163 0
-40 -163 0
-41 -163 0
-42 -163 0
-43 -163 0
-44 -163 0
-45 -163 0
-46 -163 0
-47 -163 0
-48 -163 0
-49 -163 0
-50 -163 0
-40 -164 0
-41 -164 0
-42 -164 0
-43 -164 0
-44 -164 0
-45 -164 0
-46 -164 0
-47 -164 0
-48 -164 0
-49 -164 0
-50 -164 0
-41 -165 0
-42 -165 0
-43 -165 0
-44 -165 0
-45 -165 0
-46 -165 0
-47 -165 0
-48 -165 0
-49 -165 0
-50 -165 0
-42 -166 0
-43 -166 0
-44 -166 0
-45 -166 0
-46 -166 0
-47 -166 0
-48 -166 0
-49 -166 0
-50 -166 0
-43 -167 0
-44 -167 0
-45 -167 0
-46 -167 0
-47 -167 0
-48 -167 0
-49 -167 0
-50 -167 0
-44 -168 0
-45 -168 0
-46 -168 0
-47 -168 0
-48 -168 0
-49 -168 0
-50 -168 0
-45 -169 0
-46 -169 0
-47 -169 0
-48 -169 0
-49 -169 0
-50 -169 0
-46 -170 0
-47 -170 0
-48 -170 0
-49 -170 0
-50 -170 0
-47 -171 0
-48 -171 0
-49 -171 0
-50 -171 0
-48 -172 0
-49 -172 0
-50 -172 0
-49 -173 0
-50 -173 0
-50 -174 0
-52 -76 0
-53 -76 0
-54 -76 0
-55 -76 0
-56 -76 0
-57 -76 0
-58 -76 0
-59 -76 0
-60 -76 0
-61 -76 0
-62 -76 0
-63 -76 0
-64 -76 0
-65 -76 0
-66 -76 0
-67 -76 0
-68 -76 0
-69 -76 0
-70 -76 0
-71 -76 0
-72 -76 0
-73 -76 0
-74 -76 0
-75 -76 0
-53 -77 0
-54 -77 0
-55 -77 0
-56 -77 0
-57 -77 0
-58 -77 0
-59 -77 0
-60 -77 0
-61 -77 0
-62 -77 0
-63 -77 0
-64 -77 0
-65 -77 0
-66 -77 0
-67 -77 0
-68 -77 0
-69 -77 0
-70 -77 0
-71 -77 0
-72 -77 0
-73 -77 0
-74 -77 0
-75 -77 0
-54 -78 0
-55 -78 0
-56 -78 0
-57 -78 0
-58 -78 0
-59 -78 0
-60 -78 0
-61 -78 0
-62 -78 0
-63 -78 0
-64 -78 0
-65 -78 0
-66 -78 0
-67 -78 0
-68 -78 0
-69 -78 0
-70 -78 0
-71 -78 0
-72 -78 0
-73 -78 0
-74 -78 0
-75 -78 0
-55 -79 0
-56 -79 0
-57 -79 0
-58 -79 0
-59 -79 0
-60 -79 0
-61 -79 0
-62 -79 0
-63 -79 0
-64 -79 0
-65 -79 0
-66 -79 0
-67 -79 0
-68 -79 0
-69 -79 0
-70 -79 0
-71 -79 0
-72 -79 0
-73 -79 0
-74 -79 0
-75 -79 0
-56 -80 0
-57 -80 0
-58 -80 0
-59 -80 0
-60 -80 0
-61 -80 0
-62 -80 0
-63 -80 0
-64 -80 0
-65 -80 0
-66 -80 0
-67 -80 0
-68 -80 0
-69 -80 0
-70 -80 0
-71 -80 0
-72 -80 0
-73 -80 0
-74 -80 0
-75 -80 0
-57 -81 0
-58 -81 0
-59 -81 0
-60 -81 0
-61 -81 0
-62 -81 0
-63 -81 0
-64 -81 0
-65 -81 0
-66 -81 0
-67 -81 0
-68 -81 0
-69 -81 0
-70 -81 0
-71 -81 0
-72 -81 0
-73 -81 0
-74 -81 0
-75 -81 0
-58 -82 0
-59 -82 0
-60 -82 0
-61 -82 0
-62 -82 0
-63 -82 0
-64 -82 0
-65 -82 0
-66 -82 0
-67 -82 0
-68 -82 0
-69 -82 0
-70 -82 0
-71 -82 0
-72 -82 0
-73 -82 0
-74 -82 0
-75 -82 0
-59 -83 0
-60 -83 0
-61 -83 0
-62 -83 0
-63 -83 0
-64 -83 0
-65 -83 0
-66 -83 0
-67 -83 0
-68 -83 0
-69 -83 0
-70 -83 0
-71 -83 0
-72 -83 0
-73 -83 0
-74 -83 0
-75 -83 0
-60 -84 0
-61 -84 0
-62 -84 0
-63 -84 0
-64 -84 0
-65 -84 0
-66 -84 0
-67 -84 0
-68 -84 0
-69 -84 0
-70 -84 0
-71 -84 0
-72 -84 0
-73 -84 0
-74 -84 0
-75 -84 0
-61 -85 0
-62 -85 0
-63 -85 0
-64 -85 0
-65 -85 0
-66 -85 0
-67 -85 0
-68 -85 0
-69 -85 0
-70 -85 0
-71 -85 0
-72 -85 0
-73 -85 0
-74 -85 0
-75 -85 0
-62 -86 0
-63 -86 0
-64 -86 0
-65 -86 0
-66 -86 0
-67 -86 0
-68 -86 0
-69 -86 0
-70 -86 0
-71 -86 0
-72 -86 0
-73 -86 0
-74 -86 0
-75 -86 0
-63 -87 0
-64 -87 0
-65 -87 0
-66 -87 0
-67 -87 0
-68 -87 0
-69 -87 0
-70 -87 0
-71 -87 0
-72 -87 0
-73 -87 0
-74 -87 0
-75 -87 0
-64 -88 0
-65 -88 0
-66 -88 0
-67 -88 0
-68 -88 0
-69 -88 0
-70 -88 0
-71 -88 0
-72 -88 0
-73 -88 0
-74 -88 0
-75 -88 0
-65 -89 0
-66 -89 0
-67 -89 0
-68 -89 0
-69 -89 0
-70 -89 0
-71 -89 0
-72 -89 0
-73 -89 0
-74 -89 0
-75 -89 0
-66 -90 0
-67 -90 0
-68 -90 0
-69 -90 0
-70 -90 0
-71 -90 0
-72 -90 0
-73 -90 0
-74 -90 0
-75 -90 0
-67 -91 0
-68 -91 0
-69 -91 0
-70 -91 0
-71 -91 0
-72 -91 0
-73 -91 0
-74 -91 0
-75 -91 0
-68 -92 0
-69 -92 0
-70 -92 0
-71 -92 0
-72 -92 0
-73 -92 0
-74 -92 0
-75 -92 0
-69 -93 0
-70 -93 0
-71 -93 0
-72 -93 0
-73 -93 0
-74 -93 0
-75 -93 0
-70 -94 0
-71 -94 0
-72 -94 0
-73 -94 0
-74 -94 0
-75 -94 0
-71 -95 0
-72 -95 0
-73 -95 0
-74 -95 0
-75 -95 0
-72 -96 0
-73 -96 0
-74 -96 0
-75 -96 0
-73 -97 0
-74 -97 0
-75 -97 0
-74 -98 0
-75 -98 0
-75 -99 0
-52 -101 0
-53 -101 0
-54 -101 0
-55 -101 0
-56 -101 0
-57 -101 0
-58 -101 0
-59 -101 0
-60 -101 0
-61 -101 0
-62 -101 0
-63 -101 0
-64 -101 0
-65 -101 0
-66 -101 0
-67 -101 0
-68 -101 0
-69 -101 0
-70 -101 0
-71 -101 0
-72 -101 0
-73 -101 0
-74 -101 0
-75 -101 0
-53 -102 0
-54 -102 0
-55 -102 0
-56 -102 0
-57 -102 0
-58 -102 0
-59 -102 0
-60 -102 0
-61 -102 0
-62 -102 0
-63 -102 0
-64 -102 0
-65 -102 0
-66 -102 0
-67 -102 0
-68 -102 0
-69 -102 0
-70 -102 0
-71 -102 0
-72 -102 0
-73 -102 0
-74 -102 0
-75 -102 0
-54 -103 0
-55 -103 0
-56 -103 0
-57 -103 0
-58 -103 0
-59 -103 0
-60 -103 0
-61 -103 0
-62 -103 0
-63 -103 0
-64 -103 0
-65 -103 0
-66 -103 0
-67 -103 0
-68 -103 0
-69 -103 0
-70 -103 0
-71 -103 0
-72 -103 0
-73 -103 0
-74 -103 0
-75 -103 0
-55 -104 0
-56 -104 0
-57 -104 0
-58 -104 0
-59 -104 0
-60 -104 0
-61 -104 0
-62 -104 0
-63 -104 0
-64 -104 0
-65 -104 0
-66 -104 0
-67 -104 0
-68 -104 0
-69 -104 0
-70 -104 0
-71 -104 0
-72 -104 0
-73 -104 0
-74 -104 0
-75 -104 0
-56 -105 0
-57 -105 0
-58 -105 0
-59 -105 0
-60 -105 0
-61 -105 0
-62 -105 0
-63 -105 0
-64 -105 0
-65 -105 0
-66 -105 0
-67 -105 0
-68 -105 0
-69 -105 0
-70 -105 0
-71 -105 0
-72 -105 0
-73 -105 0
-74 -105 0
-75 -105 0
-57 -106 0
-58 -106 0
-59 -106 0
-60 -106 0
-61 -106 0
-62 -106 0
-63 -106 0
-64 -106 0
-65 -106 0
-66 -106 0
-67 -106 0
-68 -106 0
-69 -106 0
-70 -106 0
-71 -106 0
-72 -106 0
-73 -106 0
-74 -106 0
-75 -106 0
-58 -107 0
-59 -107 0
-60 -107 0
-61 -107 0
-62 -107 0
-63 -107 0
-64 -107 0
-65 -107 0
-66 -107 0
-67 -107 0
-68 -107 0
-69 -107 0
-70 -107 0
-71 -107 0
-72 -107 0
-73 -107 0
-74 -107 0
-75 -107 0
-59 -108 0
-60 -108 0
-61 -108 0
-62 -108 0
-63 -108 0
-64 -108 0
-65 -108 0
-66 -108 0
-67 -108 0
-68 -108 0
-69 -108 0
-70 -108 0
-71 -108 0
-72 -108 0
-73 -108 0
-74 -108 0
-75 -108 0
-60 -109 0
-61 -109 0
-62 -109 0
-63 -109 0
-64 -109 0
-65 -109 0
-66 -109 0
-67 -109 0
-68 -109 0
-69 -109 0
-70 -109 0
-71 -109 0
-72 -109 0
-73 -109 0
-74 -109 0
-75 -109 0
-61 -110 0
-62 -110 0
-63 -110 0
-64 -110 0
-65 -110 0
-66 -110 0
-67 -110 0
-68 -110 0
-69 -110 0
-70 -110 0
-71 -110 0
-72 -110 0
-73 -110 0
-74 -110 0
-75 -110 0
-62 -111 0
-63 -111 0
-64 -111 0
-65 -111 0
-66 -111 0
-67 -111 0
-68 -111 0
-69 -111 0
-70 -111 0
-71 -111 0
-72 -111 0
-73 -111 0
-74 -111 0
-75 -111 0
-63 -112 0
-64 -112 0
-65 -112 0
-66 -112 0
-67 -112 0
-68 -112 0
-69 -112 0
-70 -112 0
-71 -112 0
-72 -112 0
-73 -112 0
-74 -112 0
-75 -112 0
-64 -113 0
-65 -113 0
-66 -113 0
-67 -113 0
-68 -113 0
-69 -113 0
-70 -113 0
-71 -113 0
-72 -113 0
-73 -113 0
-74 -113 0
-75 -113 0
-65 -114 0
-66 -114 0
-67 -114 0
-68 -114 0
-69 -114 0
-70 -114 0
-71 -114 0
-72 -114 0
-73 -114 0
-74 -114 0
-75 -114 0
-66 -115 0
-67 -115 0
-68 -115 0
-69 -115 0
-70 -115 0
-71 -115 0
-72 -115 0
-73 -115 0
-74 -115 0
-75 -115 0
-67 -116 0
-68 -116 0
-69 -116 0
-70 -116 0
-71 -116 0
-72 -116 0
-73 -116 0
-74 -116 0
-75 -116 0
-68 -117 0
-69 -117 0
-70 -117 0
-71 -117 0
-72 -117 0
-73 -117 0
-74 -117 0
-75 -117 0
-69 -118 0
-70 -118 0
-71 -118 0
-72 -118 0
-73 -118 0
-74 -118 0
-75 -118 0
-70 -119 0
-71 -119 0
-72 -119 0
-73 -119 0
-74 -119 0
-75 -119 0
-71 -120 0
-72 -120 0
-73 -120 0
-74 -120 0
-75 -120 0
-72 -121 0
-73 -121 0
-74 -121 0
-75 -121 0
-73 -122 0
-74 -122 0
-75 -122 0
-74 -123 0
-75 -123 0
-75 -124 0
-52 -126 0
-53 -126 0
-54 -126 0
-55 -126 0
-56 -126 0
-57 -126 0
-58 -126 0
-59 -126 0
-60 -126 0
-61 -126 0
-62 -126 0
-63 -126 0
-64 -126 0
-65 -126 0
-66 -126 0
-67 -126 0
-68 -126 0
-69 -126 0
-70 -126 0
-71 -126 0
-72 -126 0
-73 -126 0
-74 -126 0
-75 -126 0
-53 -127 0
-54 -127 0
-55 -127 0
-56 -127 0
-57 -127 0
-58 -127 0
-59 -127 0
-60 -127 0
-61 -127 0
-62 -127 0
-63 -127 0
-64 -127 0
-65 -127 0
-66 -127 0
-67 -127 0
-68 -127 0
-69 -127 0
-70 -127 0
-71 -127 0
-72 -127 0
-73 -127 0
-74 -127 0
-75 -127 0
-54 -128 0
-55 -128 0
-56 -128 0
-57 -128 0
-58 -128 0
-59 -128 0
-60 -128 0
-61 -128 0
-62 -128 0
-63 -128 0
-64 -128 0
-65 -128 0
-66 -128 0
-67 -128 0
-68 -128 0
-69 -128 0
-70 -128 0
-71 -128 0
-72 -128 0
-73 -128 0
-74 -128 0
-75 -128 0
-55 -129 0
-56 -129 0
-57 -129 0
-58 -129 0
-59 -129 0
-60 -129 0
-61 -129 0
-62 -129 0
-63 -129 0
-64 -129 0
-65 -129 0
-66 -129 0
-67 -129 0
-68 -129 0
-69 -129 0
-70 -129 0
-71 -129 0
-72 -129 0
-73 -129 0
-74 -129 0
-75 -129 0
-56 -130 0
-57 -130 0
-58 -130 0
-59 -130 0
-60 -130 0
-61 -130 0
-62 -130 0
-63 -130 0
-64 -130 0
-65 -130 0
-66 -130 0
-67 -130 0
-68 -130 0
-69 -130 0
-70 -130 0
-71 -130 0
-72 -130 0
-73 -130 0
-74 -130 0
-75 -130 0
-57 -131 0
-58 -131 0
-59 -131 0
-60 -131 0
-61 -131 0
-62 -131 0
-63 -131 0
-64 -131 0
-65 -131 0
-66 -131 0
-67 -131 0
-68 -131 0
-69 -131 0
-70 -131 0
-71 -131 0
-72 -131 0
-73 -131 0
-74 -131 0
-75 -131 0
-58 -132 0
-59 -132 0
-60 -132 0
-61 -132 0
-62 -132 0
-63 -132 0
-64 -132 0
-65 -132 0
-66 -132 0
-67 -132 0
-68 -132 0
-69 -132 0
-70 -132 0
-71 -132 0
-72 -132 0
-73 -132 0
-74 -132 0
-75 -132 0
-59 -133 0
-60 -133 0
-61 -133 0
-62 -133 0
-63 -133 0
-64 -133 0
-65 -133 0
-66 -133 0
-67 -133 0
-68 -133 0
-69 -133 0
-70 -133 0
-71 -133 0
-72 -133 0
-73 -133 0
-74 -133 0
-75 -133 0
-60 -134 0
-61 -134 0
-62 -134 0
-63 -134 0
-64 -134 0
-65 -134 0
-66 -134 0
-67 -134 0
-68 -134 0
-69 -134 0
-70 -134 0
-71 -134 0
-72 -134 0
-73 -134 0
-74 -134 0
-75 -134 0
-61 -135 0
-62 -135 0
-63 -135 0
-64 -135 0
-65 -135 0
-66 -135 0
-67 -135 0
-68 -135 0
-69 -135 0
-70 -135 0
-71 -135 0
-72 -135 0
-73 -135 0
-74 -135 0
-75 -135 0
-62 -136 0
-63 -136 0
-64 -136 0
-65 -136 0
-66 -136 0
-67 -136 0
-68 -136 0
-69 -136 0
-70 -136 0
-71 -136 0
-72 -136 0
-73 -136 0
-74 -136 0
-75 -136 0
-63 -137 0
-64 -137 0
-65 -137 0
-66 -137 0
-67 -137 0
-68 -137 0
-69 -137 0
-70 -137 0
-71 -137 0
-72 -137 0
-73 -137 0
-74 -137 0
-75 -137 0
-64 -138 0
-65 -138 0
-66 -138 0
-67 -138 0
-68 -138 0
-69 -138 0
-70 -138 0
-71 -138 0
-72 -138 0
-73 -138 0
-74 -138 0
-75 -138 0
-65 -139 0
-66 -139 0
-67 -139 0
-68 -139 0
-69 -139 0
-70 -139 0
-71 -139 0
-72 -139 0
-73 -139 0
-74 -139 0
-75 -139 0
-66 -140 0
-67 -140 0
-68 -140 0
-69 -140 0
-70 -140 0
-71 -140 0
-72 -140 0
-73 -140 0
-74 -140 0
-75 -140 0
-67 -141 0
-68 -141 0
-69 -141 0
-70 -141 0
-71 -141 0
-72 -141 0
-73 -141 0
-74 -141 0
-75 -141 0
-68 -142 0
-69 -142 0
-70 -142 0
-71 -142 0
-72 -142 0
-73 -142 0
-74 -142 0
-75 -142 0
-69 -143 0
-70 -143 0
-71 -143 0
-72 -143 0
-73 -143 0
-74 -143 0
-75 -143 0
-70 -144 0
-71 -144 0
-72 -144 0
-73 -144 0
-74 -144 0
-75 -144 0
-71 -145 0
-72 -145 0
-73 -145 0
-74 -145 0
-75 -145 0
-72 -146 0
-73 -146 0
-74 -146 0
-75 -146 0
-73 -147 0
-74 -147 0
-75 -147 0
-74 -148 0
-75 -148 0
-75 -149 0
-52 -151 0
-53 -151 0
-54 -151 0
-55 -151 0
-56 -151 0
-57 -151 0
-58 -151 0
-59 -151 0
-60 -151 0
-61 -151 0
-62 -151 0
-63 -151 0
-64 -151 0
-65 -151 0
-66 -151 0
-67 -151 0
-68 -151 0
-69 -151 0
-70 -151 0
-71 -151 0
-72 -151 0
-73 -151 0
-74 -151 0
-75 -151 0
-53 -152 0
-54 -152 0
-55 -152 0
-56 -152 0
-57 -152 0
-58 -152 0
-59 -152 0
-60 -152 0
-61 -152 0
-62 -152 0
-63 -152 0
-64 -152 0
-65 -152 0
-66 -152 0
-67 -152 0
-68 -152 0
-69 -152 0
-70 -152 0
-71 -152 0
-72 -152 0
-73 -152 0
-74 -152 0
-75 -152 0
-54 -153 0
-55 -153 0
-56 -153 0
-57 -153 0
-58 -153 0
-59 -153 0
-60 -153 0
-61 -153 0
-62 -153 0
-63 -153 0
-64 -153 0
-65 -153 0
-66 -153 0
-67 -153 0
-68 -153 0
-69 -153 0
-70 -153 0
-71 -153 0
-72 -153 0
-73 -153 0
-74 -153 0
-75 -153 0
-55 -154 0
-56 -154 0
-57 -154 0
-58 -154 0
-59 -154 0
-60 -154 0
-61 -154 0
-62 -154 0
-63 -154 0
-64 -154 0
-65 -154 0
-66 -154 0
-67 -154 0
-68 -154 0
-69 -154 0
-70 -154 0
-71 -154 0
-72 -154 0
-73 -154 0
-74 -154 0
-75 -154 0
-56 -155 0
-57 -155 0
-58 -155 0
-59 -155 0
-60 -155 0
-61 -155 0
-62 -155 0
-63 -155 0
-64 -155 0
-65 -155 0
-66 -155 0
-67 -155 0
-68 -155 0
-69 -155 0
-70 -155 0
-71 -155 0
-72 -155 0
-73 -155 0
-74 -155 0
-75 -155 0
-57 -156 0
-58 -156 0
-59 -156 0
-60 -156 0
-61 -156 0
-62 -156 0
-63 -156 0
-64 -156 0
-65 -156 0
-66 -156 0
-67 -156 0
-68 -156 0
-69 -156 0
-70 -156 0
-71 -156 0
-72 -156 0
-73 -156 0
-74 -156 0
-75 -156 0
-58 -157 0
-59 -157 0
-60 -157 0
-61 -157 0
-62 -157 0
-63 -157 0
-64 -157 0
-65 -157 0
-66 -157 0
-67 -157 0
-68 -157 0
-69 -157 0
-70 -157 0
-71 -157 0
-72 -157 0
-73 -157 0
-74 -157 0
-75 -157 0
-59 -158 0
-60 -158 0
-61 -158 0
-62 -158 0
-63 -158 0
-64 -158 0
-65 -158 0
-66 -158 0
-67 -158 0
-68 -158 0
-69 -158 0
-70 -158 0
-71 -158 0
-72 -158 0
-73 -158 0
-74 -158 0
-75 -158 0
-60 -159 0
-61 -159 0
-62 -159 0
-63 -159 0
-64 -159 0
-65 -159 0
-66 -159 0
-67 -159 0
-68 -159 0
-69 -159 0
-70 -159 0
-71 -159 0
-72 -159 0
-73 -159 0
-74 -159 0
-75 -159 0
-61 -160 0
-62 -160 0
-63 -160 0
-64 -160 0
-65 -160 0
-66 -160 0
-67 -160 0
-68 -160 0
-69 -160 0
-70 -160 0
-71 -160 0
-72 -160 0
-73 -160 0
-74 -160 0
-75 -160 0
-62 -161 0
-63 -161 0
-64 -161 0
-65 -161 0
-66 -161 0
-67 -161 0
-68 -161 0
-69 -161 0
-70 -161 0
-71 -161 0
-72 -161 0
-73 -161 0
-74 -161 0
-75 -161 0
-63 -162 0
-64 -162 0
-65 -162 0
-66 -162 0
-67 -162 0
-68 -162 0
-69 -162 0
-70 -162 0
-71 -162 0
-72 -162 0
-73 -162 0
-74 -162 0
-75 -162 0
-64 -163 0
-65 -163 0
-66 -163 0
-67 -163 0
-68 -163 0
-69 -163 0
-70 -163 0
-71 -163 0
-72 -163 0
-73 -163 0
-74 -163 0
-75 -163 0
-65 -164 0
-66 -164 0
-67 -164 0
-68 -164 0
-69 -164 0
-70 -164 0
-71 -164 0
-72 -164 0
-73 -164 0
-74 -164 0
-75 -164 0
-66 -165 0
-67 -165 0
-68 -165 0
-69 -165 0
-70 -165 0
-71 -165 0
-72 -165 0
-73 -165 0
-74 -165 0
-75 -165 0
-67 -166 0
-68 -166 0
-69 -166 0
-70 -166 0
-71 -166 0
-72 -166 0
-73 -166 0
-74 -166 0
-75 -166 0
-68 -167 0
-69 -167 0
-70 -167 0
-71 -167 0
-72 -167 0
-73 -167 0
-74 -167 0
-75 -167 0
-69 -168 0
-70 -168 0
-71 -168 0
-72 -168 0
-73 -168 0
-74 -168 0
-75 -168 0
-70 -169 0
-71 -169 0
-72 -169 0
-73 -169 0
-74 -169 0
-75 -169 0
-71 -170 0
-72 -170 0
-73 -170 0
-74 -170 0
-75 -170 0
-72 -171 0
-73 -171 0
-74 -171 0
-75 -171 0
-73 -172 0
-74 -172 0
-75 -172 0
-74 -173 0
-75 -173 0
-75 -174 0
-77 -101 0
-78 -101 0
-79 -101 0
-80 -101 0
-81 -101 0
-82 -101 0
-83 -101 0
-84 -101 0
-85 -101 0
-86 -101 0
-87 -101 0
-88 -101 0
-89 -101 0
-90 -101 0
-91 -101 0
-92 -101 0
-93 -101 0
-94 -101 0
-95 -101 0
-96 -101 0
-97 -101 0
-98 -101 0
-99 -101 0
-100 -101 0
-78 -102 0
-79 -102 0
-80 -102 0
-81 -102 0
-82 -102 0
-83 -102 0
-84 -102 0
-85 -102 0
-86 -102 0
-87 -102 0
-88 -102 0
-89 -102 0
-90 -102 0
-91 -102 0
-92 -102 0
-93 -102 0
-94 -102 0
-95 -102 0
-96 -102 0
-97 -102 0
-98 -102 0
-99 -102 0
-100 -102 0
-79 -103 0
-80 -103 0
-81 -103 0
-82 -103 0
-83 -103 0
-84 -103 0
-85 -103 0
-86 -103 0
-87 -103 0
-88 -103 0
-89 -103 0
-90 -103 0
-91 -103 0
-92 -103 0
-93 -103 0
-94 -103 0
-95 -103 0
-96 -103 0
-97 -103 0
-98 -103 0
-99 -103 0
-100 -103 0
-80 -104 0
-81 -104 0
-82 -104 0
-83 -104 0
-84 -104 0
-85 -104 0
-86 -104 0
-87 -104 0
-88 -104 0
-89 -104 0
-90 -104 0
-91 -104 0
-92 -104 0
-93 -104 0
-94 -104 0
-95 -104 0
-96 -104 0
-97 -104 0
-98 -104 0
-99 -104 0
-100 -104 0
-81 -105 0
-82 -105 0
-83 -105 0
-84 -105 0
-85 -105 0
-86 -105 0
-87 -105 0
-88 -105 0
-89 -105 0
-90 -105 0
-91 -105 0
-92 -105 0
-93 -105 0
-94 -105 0
-95 -105 0
-96 -105 0
-97 -105 0
-98 -105 0
-99 -105 0
-100 -105 0
-82 -106 0
-83 -106 0
-84 -106 0
-85 -106 0
-86 -106 0
-87 -106 0
-88 -106 0
-89 -106 0
-90 -106 0
-91 -106 0
-92 -106 0
-93 -106 0
-94 -106 0
-95 -106 0
-96 -106 0
-97 -106 0
-98 -106 0
-99 -106 0
-100 -106 0
-83 -107 0
-84 -107 0
-85 -107 0
-86 -107 0
-87 -107 0
-88 -107 0
-89 -107 0
-90 -107 0
-91 -107 0
-92 -107 0
-93 -107 0
-94 -107 0
-95 -107 0
-96 -107 0
-97 -107 0
-98 -107 0
-99 -107 0
-100 -107 0
-84 -108 0
-85 -108 0
-86 -108 0
-87 -108 0
-88 -108 0
-89 -108 0
-90 -108 0
-91 -108 0
-92 -108 0
-93 -108 0
-94 -108 0
-95 -108 0
-96 -108 0
-97 -108 0
-98 -108 0
-99 -108 0
-100 -108 0
-85 -109 0
-86 -109 0
-87 -109 0
-88 -109 0
-89 -109 0
-90 -109 0
-91 -109 0
-92 -109 0
-93 -109 0
-94 -109 0
-95 -109 0
-96 -109 0
-97 -109 0
-98 -109 0
-99 -109 0
-100 -109 0
-86 -110 0
-87 -110 0
-88 -110 0
-89 -110 0
-90 -110 0
-91 -110 0
-92 -110 0
-93 -110 0
-94 -110 0
-95 -110 0
-96 -110 0
-97 -110 0
-98 -110 0
-99 -110 0
-100 -110 0
-87 -111 0
-88 -111 0
-89 -111 0
-90 -111 0
-91 -111 0
-92 -111 0
-93 -111 0
-94 -111 0
-95 -111 0
-96 -111 0
-97 -111 0
-98 -111 0
-99 -111 0
-100 -111 0
-88 -112 0
-89 -112 0
-90 -112 0
-91 -112 0
-92 -112 0
-93 -112 0
-94 -112 0
-95 -112 0
-96 -112 0
-97 -112 0
-98 -112 0
-99 -112 0
-100 -112 0
-89 -113 0
-90 -113 0
-91 -113 0
-92 -113 0
-93 -113 0
-94 -113 0
-95 -113 0
-96 -113 0
-97 -113 0
-98 -113 0
-99 -113 0
-100 -113 0
-90 -114 0
-91 -114 0
-92 -114 0
-93 -114 0
-94 -114 0
-95 -114 0
-96 -114 0
-97 -114 0
-98 -114 0
-99 -114 0
-100 -114 0
-91 -115 0
-92 -115 0
-93 -115 0
-94 -115 0
-95 -115 0
-96 -115 0
-97 -115 0
-98 -115 0
-99 -115 0
-100 -115 0
-92 -116 0
-93 -116 0
-94 -116 0
-95 -116 0
-96 -116 0
-97 -116 0
-98 -116 0
-99 -116 0
-100 -116 0
-93 -117 0
-94 -117 0
-95 -117 0
-96 -117 0
-97 -117 0
-98 -117 0
-99 -117 0
-100 -117 0
-94 -118 0
-95 -118 0
-96 -118 0
-97 -118 0
-98 -118 0
-99 -118 0
-100 -118 0
-95 -119 0
-96 -119 0
-97 -119 0
-98 -119 0
-99 -119 0
-100 -119 0
-96 -120 0
-97 -120 0
-98 -120 0
-99 -120 0
-100 -120 0
-97 -121 0
-98 -121 0
-99 -121 0
-100 -121 0
-98 -122 0
-99 -122 0
-100 -122 0
-99 -123 0
-100 -123 0
-100 -124 0
-77 -126 0
-78 -126 0
-79 -126 0
-80 -126 0
-81 -126 0
-82 -126 0
-83 -126 0
-84 -126 0
-85 -126 0
-86 -126 0
-87 -126 0
-88 -126 0
-89 -126 0
-90 -126 0
-91 -126 0
-92 -126 0
-93 -126 0
-94 -126 0
-95 -126 0
-96 -126 0
-97 -126 0
-98 -126 0
-99 -126 0
-100 -126 0
-78 -127 0
-79 -127 0
-80 -127 0
-81 -127 0
-82 -127 0
-83 -127 0
-84 -127 0
-85 -127 0
-86 -127 0
-87 -127 0
-88 -127 0
-89 -127 0
-90 -127 0
-91 -127 0
-92 -127 0
-93 -127 0
-94 -127 0
-95 -127 0
-96 -127 0
-97 -127 0
-98 -127 0
-99 -127 0
-100 -127 0
-79 -128 0
-80 -128 0
-81 -128 0
-82 -128 0
-83 -128 0
-84 -128 0
-85 -128 0
-86 -128 0
-87 -128 0
-88 -128 0
-89 -128 0
-90 -128 0
-91 -128 0
-92 -128 0
-93 -128 0
-94 -128 0
-95 -128 0
-96 -128 0
-97 -128 0
-98 -128 0
-99 -128 0
-100 -128 0
-80 -129 0
-81 -129 0
-82 -129 0
-83 -129 0
-84 -129 0
-85 -129 0
-86 -129 0
-87 -129 0
-88 -129 0
-89 -129 0
-90 -129 0
-91 -129 0
-92 -129 0
-93 -129 0
-94 -129 0
-95 -129 0
-96 -129 0
-97 -129 0
-98 -129 0
-99 -129 0
-100 -129 0
-81 -130 0
-82 -130 0
-83 -130 0
-84 -130 0
-85 -130 0
-86 -130 0
-87 -130 0
-88 -130 0
-89 -130 0
-90 -130 0
-91 -130 0
-92 -130 0
-93 -130 0
-94 -130 0
-95 -130 0
-96 -130 0
-97 -130 0
-98 -130 0
-99 -130 0
-100 -130 0
-82 -131 0
-83 -131 0
-84 -131 0
-85 -131 0
-86 -131 0
-87 -131 0
-88 -131 0
-89 -131 0
-90 -131 0
-91 -131 0
-92 -131 0
-93 -131 0
-94 -131 0
-95 -131 0
-96 -131 0
-97 -131 0
-98 -131 0
-99 -131 0
-100 -131 0
-83 -132 0
-84 -132 0
-85 -132 0
-86 -132 0
-87 -132 0
-88 -132 0
-89 -132 0
-90 -132 0
-91 -132 0
-92 -132 0
-93 -132 0
-94 -132 0
-95 -132 0
-96 -132 0
-97 -132 0
-98 -132 0
-99 -132 0
-100 -132 0
-84 -133 0
-85 -133 0
-86 -133 0
-87 -133 0
-88 -133 0
-89 -133 0
-90 -133 0
-91 -133 0
-92 -133 0
-93 -133 0
-94 -133 0
-95 -133 0
-96 -133 0
-97 -133 0
-98 -133 0
-99 -133 0
-100 -133 0
-85 -134 0
-86 -134 0
-87 -134 0
-88 -134 0
-89 -134 0
-90 -134 0
-91 -134 0
-92 -134 0
-93 -134 0
-94 -134 0
-95 -134 0
-96 -134 0
-97 -134 0
-98 -134 0
-99 -134 0
-100 -134 0
-86 -135 0
-87 -135 0
-88 -135 0
-89 -135 0
-90 -135 0
-91 -135 0
-92 -135 0
-93 -135 0
-94 -135 0
-95 -135 0
-96 -135 0
-97 -135 0
-98 -135 0
-99 -135 0
-100 -135 0
-87 -136 0
-88 -136 0
-89 -136 0
-90 -136 0
-91 -136 0
-92 -136 0
-93 -136 0
-94 -136 0
-95 -136 0
-96 -136 0
-97 -136 0
-98 -136 0
-99 -136 0
-100 -136 0
-88 -137 0
-89 -137 0
-90 -137 0
-91 -137 0
-92 -137 0
-93 -137 0
-94 -137 0
-95 -137 0
-96 -137 0
-97 -137 0
-98 -137 0
-99 -137 0
-100 -137 0
-89 -138 0
-90 -138 0
-91 -138 0
-92 -138 0
-93 -138 0
-94 -138 0
-95 -138 0
-96 -138 0
-97 -138 0
-98 -138 0
-99 -138 0
-100 -138 0
-90 -139 0
-91 -139 0
-92 -139 0
-93 -139 0
-94 -139 0
-95 -139 0
-96 -139 0
-97 -139 0
-98 -139 0
-99 -139 0
-100 -139 0
-91 -140 0
-92 -140 0
-93 -140 0
-94 -140 0
-95 -140 0
-96 -140 0
-97 -140 0
-98 -140 0
-99 -140 0
-100 -140 0
-92 -141 0
-93 -141 0
-94 -141 0
-95 -141 0
-96 -141 0
-97 -141 0
-98 -141 0
-99 -141 0
-100 -141 0
-93 -142 0
-94 -142 0
-95 -142 0
-96 -142 0
-97 -142 0
-98 -142 0
-99 -142 0
-100 -142 0
-94 -143 0
-95 -143 0
-96 -143 0
-97 -143 0
-98 -143 0
-99 -143 0
-100 -143 0
-95 -144 0
-96 -144 0
-97 -144 0
-98 -144 0
-99 -144 0
-100 -144 0
-96 -145 0
-97 -145 0
-98 -145 0
-99 -145 0
-100 -145 0
-97 -146 0
-98 -146 0
-99 -146 0
-100 -146 0
-98 -147 0
-99 -147 0
-100 -147 0
-99 -148 0
-100 -148 0
-100 -149 0
-77 -151 0
-78 -151 0
-79 -151 0
-80 -151 0
-81 -151 0
-82 -151 0
-83 -151 0
-84 -151 0
-85 -151 0
-86 -151 0
-87 -151 0
-88 -151 0
-89 -151 0
-90 -151 0
-91 -151 0
-92 -151 0
-93 -151 0
-94 -151 0
-95 -151 0
-96 -151 0
-97 -151 0
-98 -151 0
-99 -151 0
-100 -151 0
-78 -152 0
-79 -152 0
-80 -152 0
-81 -152 0
-82 -152 0
-83 -152 0
-84 -152 0
-85 -152 0
-86 -152 0
-87 -152 0
-88 -152 0
-89 -152 0
-90 -152 0
-91 -152 0
-92 -152 0
-93 -152 0
-94 -152 0
-95 -152 0
-96 -152 0
-97 -152 0
-98 -152 0
-99 -152 0
-100 -152 0
-79 -153 0
-80 -153 0
-81 -153 0
-82 -153 0
-83 -153 0
-84 -153 0
-85 -153 0
-86 -153 0
-87 -153 0
-88 -153 0
-89 -153 0
-90 -153 0
-91 -153 0
-92 -153 0
-93 -153 0
-94 -153 0
-95 -153 0
-96 -153 0
-97 -153 0
-98 -153 0
-99 -153 0
-100 -153 0
-80 -154 0
-81 -154 0
-82 -154 0
-83 -154 0
-84 -154 0
-85 -154 0
-86 -154 0
-87 -154 0
-88 -154 0
-89 -154 0
-90 -154 0
-91 -154 0
-92 -154 0
-93 -154 0
-94 -154 0
-95 -154 0
-96 -154 0
-97 -154 0
-98 -154 0
-99 -154 0
-100 -154 0
-81 -155 0
-82 -155 0
-83 -155 0
-84 -155 0
-85 -155 0
-86 -155 0
-87 -155 0
-88 -155 0
-89 -155 0
-90 -155 0
-91 -155 0
-92 -155 0
-93 -155 0
-94 -155 0
-95 -155 0
-96 -155 0
-97 -155 0
-98 -155 0
-99 -155 0
-100 -155 0
-82 -156 0
-83 -156 0
-84 -156 0
-85 -156 0
-86 -156 0
-87 -156 0
-88 -156 0
-89 -156 0
-90 -156 0
-91 -156 0
-92 -156 0
-93 -156 0
-94 -156 0
-95 -156 0
-96 -156 0
-97 -156 0
-98 -156 0
-99 -156 0
-100 -156 0
-83 -157 0
-84 -157 0
-85 -157 0
-86 -157 0
-87 -157 0
-88 -157 0
-89 -157 0
-90 -157 0
-91 -157 0
-92 -157 0
-93 -157 0
-94 -157 0
-95 -157 0
-96 -157 0
-97 -157 0
-98 -157 0
-99 -157 0
-100 -157 0
-84 -158 0
-85 -158 0
-86 -158 0
-87 -158 0
-88 -158 0
-89 -158 0
-90 -158 0
-91 -158 0
-92 -158 0
-93 -158 0
-94 -158 0
-95 -158 0
-96 -158 0
-97 -158 0
-98 -158 0
-99 -158 0
-100 -158 0
-85 -159 0
-86 -159 0
-87 -159 0
-88 -159 0
-89 -159 0
-90 -159 0
-91 -159 0
-92 -159 0
-93 -159 0
-94 -159 0
-95 -159 0
-96 -159 0
-97 -159 0
-98 -159 0
-99 -159 0
-100 -159 0
-86 -160 0
-87 -160 0
-88 -160 0
-89 -160 0
-90 -160 0
-91 -160 0
-92 -160 0
-93 -160 0
-94 -160 0
-95 -160 0
-96 -160 0
-97 -160 0
-98 -160 0
-99 -160 0
-100 -160 0
-87 -161 0
-88 -161 0
-89 -161 0
-90 -161 0
-91 -161 0
-92 -161 0
-93 -161 0
-94 -161 0
-95 -161 0
-96 -161 0
-97 -161 0
-98 -161 0
-99 -161 0
-100 -161 0
-88 -162 0
-89 -162 0
-90 -162 0
-91 -162 0
-92 -162 0
-93 -162 0
-94 -162 0
-95 -162 0
-96 -162 0
-97 -162 0
-98 -162 0
-99 -162 0
-100 -162 0
-89 -163 0
-90 -163 0
-91 -163 0
-92 -163 0
-93 -163 0
-94 -163 0
-95 -163 0
-96 -163 0
-97 -163 0
-98 -163 0
-99 -163 0
-100 -163 0
-90 -164 0
-91 -164 0
-92 -164 0
-93 -164 0
-94 -164 0
-95 -164 0
-96 -164 0
-97 -164 0
-98 -164 0
-99 -164 0
-100 -164 0
-91 -165 0
-92 -165 0
-93 -165 0
-94 -165 0
-95 -165 0
-96 -165 0
-97 -165 0
-98 -165 0
-99 -165 0
-100 -165 0
-92 -166 0
-93 -166 0
-94 -166 0
-95 -166 0
-96 -166 0
-97 -166 0
-98 -166 0
-99 -166 0
-100 -166 0
-93 -167 0
-94 -167 0
-95 -167 0
-96 -167 0
-97 -167 0
-98 -167 0
-99 -167 0
-100 -167 0
-94 -168 0
-95 -168 0
-96 -168 0
-97 -168 0
-98 -168 0
-99 -168 0
-100 -168 0
-95 -169 0
-96 -169 0
-97 -169 0
-98 -169 0
-99 -169 0
-100 -169 0
-96 -170 0
-97 -170 0
-98 -170 0
-99 -170 0
-100 -170 0
-97 -171 0
-98 -171 0
-99 -171 0
-100 -171 0
-98 -172 0
-99 -172 0
-100 -172 0
-99 -173 0
-100 -173 0
-100 -174 0
-102 -126 0
-103 -126 0
-104 -126 0
-105 -126 0
-106 -126 0
-107 -126 0
-108 -126 0
-109 -126 0
-110 -126 0
-111 -126 0
-112 -126 0
-113 -126 0
-114 -126 0
-115 -126 0
-116 -126 0
-117 -126 0
-118 -126 0
-119 -126 0
-120 -126 0
-121 -126 0
-122 -126 0
-123 -126 0
-124 -126 0
-125 -126 0
-103 -127 0
-104 -127 0
-105 -127 0
-106 -127 0
-107 -127 0
-108 -127 0
-109 -127 0
-110 -127 0
-111 -127 0
-112 -127 0
-113 -127 0
-114 -127 0
-115 -127 0
-116 -127 0
-117 -127 0
-118 -127 0
-119 -127 0
-120 -127 0
-121 -127 0
-122 -127 0
-123 -127 0
-124 -127 0
-125 -127 0
-104 -128 0
-105 -128 0
-106 -128 0
-107 -128 0
-108 -128 0
-109 -128 0
-110 -128 0
-111 -128 0
-112 -128 0
-113 -128 0
-114 -128 0
-115 -128 0
-116 -128 0
-117 -128 0
-118 -128 0
-119 -128 0
-120 -128 0
-121 -128 0
-122 -128 0
-123 -128 0
-124 -128 0
-125 -128 0
-105 -129 0
-106 -129 0
-107 -129 0
-108 -129 0
-109 -129 0
-110 -129 0
-111 -129 0
-112 -129 0
-113 -129 0
-114 -129 0
-115 -129 0
-116 -129 0
-117 -129 0
-118 -129 0
-119 -129 0
-120 -129 0
-121 -129 0
-122 -129 0
-123 -129 0
-124 -129 0
-125 -129 0
-106 -130 0
-107 -130 0
-108 -130 0
-109 -130 0
-110 -130 0
-111 -130 0
-112 -130 0
-113 -130 0
-114 -130 0
-115 -130 0
-116 -130 0
-117 -130 0
-118 -130 0
-119 -130 0
-120 -130 0
-121 -130 0
-122 -130 0
-123 -130 0
-124 -130 0
-125 -130 0
-107 -131 0
-108 -131 0
-109 -131 0
-110 -131 0
-111 -131 0
-112 -131 0
-113 -131 0
-114 -131 0
-115 -131 0
-116 -131 0
-117 -131 0
-118 -131 0
-119 -131 0
-120 -131 0
-121 -131 0
-122 -131 0
-123 -131 0
-124 -131 0
-125 -131 0
-108 -132 0
-109 -132 0
-110 -132 0
-111 -132 0
-112 -132 0
-113 -132 0
-114 -132 0
-115 -132 0
-116 -132 0
-117 -132 0
-118 -132 0
-119 -132 0
-120 -132 0
-121 -132 0
-122 -132 0
-123 -132 0
-124 -132 0
-125 -132 0
-109 -133 0
-110 -133 0
-111 -133 0
-112 -133 0
-113 -133 0
-114 -133 0
-115 -133 0
-116 -133 0
-117 -133 0
-118 -133 0
-119 -133 0
-120 -133 0
-121 -133 0
-122 -133 0
-123 -133 0
-124 -133 0
-125 -133 0
-110 -134 0
-111 -134 0
-112 -134 0
-113 -134 0
-114 -134 0
-115 -134 0
-116 -134 0
-117 -134 0
-118 -134 0
-119 -134 0
-120 -134 0
-121 -134 0
-122 -134 0
-123 -134 0
-124 -134 0
-125 -134 0
-111 -135 0
-112 -135 0
-113 -135 0
-114 -135 0
-115 -135 0
-116 -135 0
-117 -135 0
-118 -135 0
-119 -135 0
-120 -135 0
-121 -135 0
-122 -135 0
-123 -135 0
-124 -135 0
-125 -135 0
-112 -136 0
-113 -136 0
-114 -136 0
-115 -136 0
-116 -136 0
-117 -136 0
-118 -136 0
-119 -136 0
-120 -136 0
-121 -136 0
-122 -136 0
-123 -136 0
-124 -136 0
-125 -136 0
-113 -137 0
-114 -137 0
-115 -137 0
-116 -137 0
-117 -137 0
-118 -137 0
-119 -137 0
-120 -137 0
-121 -137 0
-122 -137 0
-123 -137 0
-124 -137 0
-125 -137 0
-114 -138 0
-115 -138 0
-116 -138 0
-117 -138 0
-118 -138 0
-119 -138 0
-120 -138 0
-121 -138 0
-122 -138 0
-123 -138 0
-124 -138 0
-125 -138 0
-115 -139 0
-116 -139 0
-117 -139 0
-118 -139 0
-119 -139 0
-120 -139 0
-121 -139 0
-122 -139 0
-123 -139 0
-124 -139 0
-125 -139 0
-116 -140 0
-117 -140 0
-118 -140 0
-119 -140 0
-120 -140 0
-121 -140 0
-122 -140 0
-123 -140 0
-124 -140 0
-125 -140 0
-117 -141 0
-118 -141 0
-119 -141 0
-120 -141 0
-121 -141 0
-122 -141 0
-123 -141 0
-124 -141 0
-125 -141 0
-118 -142 0
-119 -142 0
-120 -142 0
-121 -142 0
-122 -142 0
-123 -142 0
-124 -142 0
-125 -142 0
-119 -143 0
-120 -143 0
-121 -143 0
-122 -143 0
-123 -143 0
-124 -143 0
-125 -143 0
-120 -144 0
-121 -144 0
-122 -144 0
-123 -144 0
-124 -144 0
-125 -144 0
-121 -145 0
-122 -145 0
-123 -145 0
-124 -145 0
-125 -145 0
-122 -146 0
-123 -146 0
-124 -146 0
-125 -146 0
-123 -147 0
-124 -147 0
-125 -147 0
-124 -148 0
-125 -148 0
-125 -149 0
-102 -151 0
-103 -151 0
-104 -151 0
-105 -151 0
-106 -151 0
-107 -151 0
-108 -151 0
-109 -151 0
-110 -151 0
-111 -151 0
-112 -151 0
-113 -151 0
-114 -151 0
-115 -151 0
-116 -151 0
-117 -151 0
-118 -151 0
-119 -151 0
-120 -151 0
-121 -151 0
-122 -151 0
-123 -151 0
-124 -151 0
-125 -151 0
-103 -152 0
-104 -152 0
-105 -152 0
-106 -152 0
-107 -152 0
-108 -152 0
-109 -152 0
-110 -152 0
-111 -152 0
-112 -152 0
-113 -152 0
-114 -152 0
-115 -152 0
-116 -152 0
-117 -152 0
-118 -152 0
-119 -152 0
-120 -152 0
-121 -152 0
-122 -152 0
-123 -152 0
-124 -152 0
-125 -152 0
-104 -153 0
-105 -153 0
-106 -153 0
-107 -153 0
-108 -153 0
-109 -153 0
-110 -153 0
-111 -153 0
-112 -153 0
-113 -153 0
-114 -153 0
-115 -153 0
-116 -153 0
-117 -153 0
-118 -153 0
-119 -153 0
-120 -153 0
-121 -153 0
-122 -153 0
-123 -153 0
-124 -153 0
-125 -153 0
-105 -154 0
-106 -154 0
-107 -154 0
-108 -154 0
-109 -154 0
-110 -154 0
-111 -154 0
-112 -154 0
-113 -154 0
-114 -154 0
-115 -154 0
-116 -154 0
-117 -154 0
-118 -154 0
-119 -154 0
-120 -154 0
-121 -154 0
-122 -154 0
-123 -154 0
-124 -154 0
-125 -154 0
-106 -155 0
-107 -155 0
-108 -155 0
-109 -155 0
-110 -155 0
-111 -155 0
-112 -155 0
-113 -155 0
-114 -155 0
-115 -155 0
-116 -155 0
-117 -155 0
-118 -155 0
-119 -155 0
-120 -155 0
-121 -155 0
-122 -155 0
-123 -155 0
-124 -155 0
-125 -155 0
-107 -156 0
-108 -156 0
-109 -156 0
-110 -156 0
-111 -156 0
-112 -156 0
-113 -156 0
-114 -156 0
-115 -156 0
-116 -156 0
-117 -156 0
-118 -156 0
-119 -156 0
-120 -156 0
-121 -156 0
-122 -156 0
-123 -156 0
-124 -156 0
-125 -156 0
-108 -157 0
-109 -157 0
-110 -157 0
-111 -157 0
-112 -157 0
-113 -157 0
-114 -157 0
-115 -157 0
-116 -157 0
-117 -157 0
-118 -157 0
-119 -157 0
-120 -157 0
-121 -157 0
-122 -157 0
-123 -157 0
-124 -157 0
-125 -157 0
-109 -158 0
-110 -158 0
-111 -158 0
-112 -158 0
-113 -158 0
-114 -158 0
-115 -158 0
-116 -158 0
-117 -158 0
-118 -158 0
-119 -158 0
-120 -158 0
-121 -158 0
-122 -158 0
-123 -158 0
-124 -158 0
-125 -158 0
-110 -159 0
-111 -159 0
-112 -159 0
-113 -159 0
-114 -159 0
-115 -159 0
-116 -159 0
-117 -159 0
-118 -159 0
-119 -159 0
-120 -159 0
-121 -159 0
-122 -159 0
-123 -159 0
-124 -159 0
-125 -159 0
-111 -160 0
-112 -160 0
-113 -160 0
-114 -160 0
-115 -160 0
-116 -160 0
-117 -160 0
-118 -160 0
-119 -160 0
-120 -160 0
-121 -160 0
-122 -160 0
-123 -160 0
-124 -160 0
-125 -160 0
-112 -161 0
-113 -161 0
-114 -161 0
-115 -161 0
-116 -161 0
-117 -161 0
-118 -161 0
-119 -161 0
-120 -161 0
-121 -161 0
-122 -161 0
-123 -161 0
-124 -161 0
-125 -161 0
-113 -162 0
-114 -162 0
-115 -162 0
-116 -162 0
-117 -162 0
-118 -162 0
-119 -162 0
-120 -162 0
-121 -162 0
-122 -162 0
-123 -162 0
-124 -162 0
-125 -162 0
-114 -163 0
-115 -163 0
-116 -163 0
-117 -163 0
-118 -163 0
-119 -163 0
-120 -163 0
-121 -163 0
-122 -163 0
-123 -163 0
-124 -163 0
-125 -163 0
-115 -164 0
-116 -164 0
-117 -164 0
-118 -164 0
-119 -164 0
-120 -164 0
-121 -164 0
-122 -164 0
-123 -164 0
-124 -164 0
-125 -164 0
-116 -165 0
-117 -165 0
-118 -165 0
-119 -165 0
-120 -165 0
-121 -165 0
-122 -165 0
-123 -165 0
-124 -165 0
-125 -165 0
-117 -166 0
-118 -166 0
-119 -166 0
-120 -166 0
-121 -166 0
-122 -166 0
-123 -166 0
-124 -166 0
-125 -166 0
-118 -167 0
-119 -167 0
-120 -167 0
-121 -167 0
-122 -167 0
-123 -167 0
-124 -167 0
-125 -167 0
-119 -168 0
-120 -168 0
-121 -168 0
-122 -168 0
-123 -168 0
-124 -168 0
-125 -168 0
-120 -169 0
-121 -169 0
-122 -169 0
-123 -169 0
-124 -169 0
-125 -169 0
-121 -170 0
-122 -170 0
-123 -170 0
-124 -170 0
-125 -170 0
-122 -171 0
-123 -171 0
-124 -171 0
-125 -171 0
-123 -172 0
-124 -172 0
-125 -172 0
-124 -173 0
-125 -173 0
-125 -174 0
-127 -151 0
-128 -151 0
-129 -151 0
-130 -151 0
-131 -151 0
-132 -151 0
-133 -151 0
-134 -151 0
-135 -151 0
-136 -151 0
-137 -151 0
-138 -151 0
-139 -151 0
-140 -151 0
-141 -151 0
-142 -151 0
-143 -151 0
-144 -151 0
-145 -151 0
-146 -151 0
-147 -151 0
-148 -151 0
-149 -151 0
-150 -151 0
-128 -152 0
-129 -152 0
-130 -152 0
-131 -152 0
-132 -152 0
-133 -152 0
-134 -152 0
-135 -152 0
-136 -152 0
-137 -152 0
-138 -152 0
-139 -152 0
-140 -152 0
-141 -152 0
-142 -152 0
-143 -152 0
-144 -152 0
-145 -152 0
-146 -152 0
-147 -152 0
-148 -152 0
-149 -152 0
-150 -152 0
-129 -153 0
-130 -153 0
-131 -153 0
-132 -153 0
-133 -153 0
-134 -153 0
-135 -153 0
-136 -153 0
-137 -153 0
-138 -153 0
-139 -153 0
-140 -153 0
-141 -153 0
-142 -153 0
-143 -153 0
-144 -153 0
-145 -153 0
-146 -153 0
-147 -153 0
-148 -153 0
-149 -153 0
-150 -153 0
-130 -154 0
-131 -154 0
-132 -154 0
-133 -154 0
-134 -154 0
-135 -154 0
-136 -154 0
-137 -154 0
-138 -154 0
-139 -154 0
-140 -154 0
-141 -154 0
-142 -154 0
-143 -154 0
-144 -154 0
-145 -154 0
-146 -154 0
-147 -154 0
-148 -154 0
-149 -154 0
-150 -154 0
-131 -155 0
-132 -155 0
-133 -155 0
-134 -155 0
-135 -155 0
-136 -155 0
-137 -155 0
-138 -155 0
-139 -155 0
-140 -155 0
-141 -155 0
-142 -155 0
-143 -155 0
-144 -155 0
-145 -155 0
-146 -155 0
-147 -155 0
-148 -155 0
-149 -155 0
-150 -155 0
-132 -156 0
-133 -156 0
-134 -156 0
-135 -156 0
-136 -156 0
-137 -156 0
-138 -156 0
-139 -156 0
-140 -156 0
-141 -156 0
-142 -156 0
-143 -156 0
-144 -156 0
-145 -156 0
-146 -156 0
-147 -156 0
-148 -156 0
-149 -156 0
-150 -156 0
-133 -157 0
-134 -157 0
-135 -157 0
-136 -157 0
-137 -157 0
-138 -157 0
-139 -157 0
-140 -157 0
-141 -157 0
-142 -157 0
-143 -157 0
-144 -157 0
-145 -157 0
-146 -157 0
-147 -157 0
-148 -157 0
-149 -157 0
-150 -157 0
-134 -158 0
-135 -158 0
-136 -158 0
-137 -158 0
-138 -158 0
-139 -158 0
-140 -158 0
-141 -158 0
-142 -158 0
-143 -158 0
-144 -158 0
-145 -158 0
-146 -158 0
-147 -158 0
-148 -158 0
-149 -158 0
-150 -158 0
-135 -159 0
-136 -159 0
-137 -159 0
-138 -159 0
-139 -159 0
-140 -159 0
-141 -159 0
-142 -159 0
-143 -159 0
-144 -159 0
-145 -159 0
-146 -159 0
-147 -159 0
-148 -159 0
-149 -159 0
-150 -159 0
-136 -160 0
-137 -160 0
-138 -160 0
-139 -160 0
-140 -160 0
-141 -160 0
-142 -160 0
-143 -160 0
-144 -160 0
-145 -160 0
-146 -160 0
-147 -160 0
-148 -160 0
-149 -160 0
-150 -160 0
-137 -161 0
-138 -161 0
-139 -161 0
-140 -161 0
-141 -161 0
-142 -161 0
-143 -161 0
-144 -161 0
-145 -161 0
-146 -161 0
-147 -161 0
-148 -161 0
-149 -161 0
-150 -161 0
-138 -162 0
-139 -162 0
-140 -162 0
-141 -162 0
-142 -162 0
-143 -162 0
-144 -162 0
-145 -162 0
-146 -162 0
-147 -162 0
-148 -162 0
-149 -162 0
-150 -162 0
-139 -163 0
-140 -163 0
-141 -163 0
-142 -163 0
-143 -163 0
-144 -163 0
-145 -163 0
-146 -163 0
-147 -163 0
-148 -163 0
-149 -163 0
-150 -163 0
-140 -164 0
-141 -164 0
-142 -164 0
-143 -164 0
-144 -164 0
-145 -164 0
-146 -164 0
-147 -164 0
-148 -164 0
-149 -164 0
-150 -164 0
-141 -165 0
-142 -165 0
-143 -165 0
-144 -165 0
-145 -165 0
-146 -165 0
-147 -165 0
-148 -165 0
-149 -165 0
-150 -165 0
-142 -166 0
-143 -166 0
-144 -166 0
-145 -166 0
-146 -166 0
-147 -166 0
-148 -166 0
-149 -166 0
-150 -166 0
-143 -167 0
-144 -167 0
-145 -167 0
-146 -167 0
-147 -167 0
-148 -167 0
-149 -167 0
-150 -167 0
-144 -168 0
-145 -168 0
-146 -168 0
-147 -168 0
-148 -168 0
-149 -168 0
-150 -168 0
-145 -169 0
-146 -169 0
-147 -169 0
-148 -169 0
-149 -169 0
-150 -169 0
-146 -170 0
-147 -170 0
-148 -170 0
-149 -170 0
-150 -170 0
-147 -171 0
-148 -171 0
-149 -171 0
-150 -171 0
-148 -172 0
-149 -172 0
-150 -172 0
-149 -173 0
-150 -173 0
-150 -174 0
-26 1 0
-27 2 0
-28 3 0
-29 4 0
-30 5 0
-31 6 0
-32 7 0
-33 8 0
-34 9 0
-35 10 0
-36 11 0
-37 12 0
-38 13 0
-39 14 0
-40 15 0
-41 16 0
-42 17 0
-43 18 0
-44 19 0
-45 20 0
-46 21 0
-47 22 0
-48 23 0
-49 24 0
-50 25 0
-51 1 0
-52 2 0
-53 3 0
-54 4 0
-55 5 0
-56 6 0
-57 7 0
-58 8 0
-59 9 0
-60 10 0
-61 11 0
-62 12 0
-63 13 0
-64 14 0
-65 15 0
-66 16 0
-67 17 0
-68 18 0
-69 19 0
-70 20 0
-71 21 0
-72 22 0
-73 23 0
-74 24 0
-75 25 0
-76 1 0
-77 2 0
-78 3 0
-79 4 0
-80 5 0
-81 6 0
-82 7 0
-83 8 0
-84 9 0
-85 10 0
-86 11 0
-87 12 0
-88 13 0
-89 14 0
-90 15 0
-91 16 0
-92 17 0
-93 18 0
-94 19 0
-95 20 0
-96 21 0
-97 22 0
-98 23 0
-99 24 0
-100 25 0
-101 1 0
-102 2 0
-103 3 0
-104 4 0
-105 5 0
-106 6 0
-107 7 0
-108 8 0
-109 9 0
-110 10 0
-111 11 0
-112 12 0
-113 13 0
-114 14 0
-115 15 0
-116 16 0
-117 17 0
-118 18 0
-119 19 0
-120 20 0
-121 21 0
-122 22 0
-123 23 0
-124 24 0
-125 25 0
-126 1 0
-127 2 0
-128 3 0
-129 4 0
-130 5 0
-131 6 0
-132 7 0
-133 8 0
-134 9 0
-135 10 0
-136 11 0
-137 12 0
-138 13 0
-139 14 0
-140 15 0
-141 16 0
-142 17 0
-143 18 0
-144 19 0
-145 20 0
-146 21 0
-147 22 0
-148 23 0
-149 24 0
-150 25 0
-151 1 0
-152 2 0
-153 3 0
-154 4 0
-155 5 0
-156 6 0
-157 7 0
-158 8 0
-159 9 0
-160 10 0
-161 11 0
-162 12 0
-163 13 0
-164 14 0
-165 15 0
-166 16 0
-167 17 0
-168 18 0
-169 19 0
-170 20 0
-171 21 0
-172 22 0
-173 23 0
-174 24 0
-175 25 0
-1 26 51 76 101 126 151 0
-2 27 52 77 102 127 152 0
-3 28 53 78 103 128 153 0
-4 29 54 79 104 129 154 0
-5 30 55 80 105 130 155 0
-6 31 56 81 106 131 156 0
-7 32 57 82 107 132 157 0
-8 33 58 83 108 133 158 0
-9 34 59 84 109 134 159 0
-10 35 60 85 110 135 160 0
-11 36 61 86 111 136 161 0
-12 37 62 87 112 137 162 0
-13 38 63 88 113 138 163 0
-14 39 64 89 114 139 164 0
-15 40 65 90 115 140 165 0
-16 41 66 91 116 141 166 0
-17 42 67 92 117 142 167 0
-18 43 68 93 118 143 168 0
-19 44 69 94 119 144 169 0
-20 45 70 95 120 145 170 0
-21 46 71 96 121 146 171 0
-22 47 72 97 122 147 172 0
-23 48 73 98 123 148 173 0
-24 49 74 99 124 149 174 0
-25 50 75 100 125 150 175 0
1 3 4 19 21 22 23 24 0
1 3 12 18 0
1 12 21 0
1 14 18 24 0
2 4 14 17 0
2 9 11 13 24 0
2 13 14 17 0
2 14 15 16 17 18 0
3 4 8 17 21 22 0
3 4 11 21 22 23 0
3 4 12 21 22 0
3 5 6 13 18 24 0
3 9 11 19 20 0
3 22 23 25 0
4 5 8 11 15 20 0
5 8 10 11 19 20 25 0
5 8 10 20 24 0
5 10 20 0
6 24 0
7 8 14 15 0
7 9 13 19 0
7 9 15 0
8 11 13 19 20 22 0
14 16 0
20 23 25 0
