p cnf 138 3956
-24 -25 0
-24 -26 0
-24 -27 0
-24 -28 0
-24 -29 0
-24 -30 0
-24 -31 0
-24 -32 0
-24 -33 0
-24 -34 0
-24 -35 0
-24 -36 0
-24 -37 0
-24 -38 0
-24 -39 0
-24 -40 0
-24 -41 0
-24 -42 0
-24 -43 0
-24 -44 0
-24 -45 0
-24 -46 0
-25 -26 0
-25 -27 0
-25 -28 0
-25 -29 0
-25 -30 0
-25 -31 0
-25 -32 0
-25 -33 0
-25 -34 0
-25 -35 0
-25 -36 0
-25 -37 0
-25 -38 0
-25 -39 0
-25 -40 0
-25 -41 0
-25 -42 0
-25 -43 0
-25 -44 0
-25 -45 0
-25 -46 0
-26 -27 0
-26 -28 0
-26 -29 0
-26 -30 0
-26 -31 0
-26 -32 0
-26 -33 0
-26 -34 0
-26 -35 0
-26 -36 0
-26 -37 0
-26 -38 0
-26 -39 0
-26 -40 0
-26 -41 0
-26 -42 0
-26 -43 0
-26 -44 0
-26 -45 0
-26 -46 0
-27 -28 0
-27 -29 0
-27 -30 0
-27 -31 0
-27 -32 0
-27 -33 0
-27 -34 0
-27 -35 0
-27 -36 0
-27 -37 0
-27 -38 0
-27 -39 0
-27 -40 0
-27 -41 0
-27 -42 0
-27 -43 0
-27 -44 0
-27 -45 0
-27 -46 0
-28 -29 0
-28 -30 0
-28 -31 0
-28 -32 0
-28 -33 0
-28 -34 0
-28 -35 0
-28 -36 0
-28 -37 0
-28 -38 0
-28 -39 0
-28 -40 0
-28 -41 0
-28 -42 0
-28 -43 0
-28 -44 0
-28 -45 0
-28 -46 0
-29 -30 0
-29 -31 0
-29 -32 0
-29 -33 0
-29 -34 0
-29 -35 0
-29 -36 0
-29 -37 0
-29 -38 0
-29 -39 0
-29 -40 0
-29 -41 0
-29 -42 0
-29 -43 0
-29 -44 0
-29 -45 0
-29 -46 0
-30 -31 0
-30 -32 0
-30 -33 0
-30 -34 0
-30 -35 0
-30 -36 0
-30 -37 0
-30 -38 0
-30 -39 0
-30 -40 0
-30 -41 0
-30 -42 0
-30 -43 0
-30 -44 0
-30 -45 0
-30 -46 0
-31 -32 0
-31 -33 0
-31 -34 0
-31 -35 0
-31 -36 0
-31 -37 0
-31 -38 0
-31 -39 0
-31 -40 0
-31 -41 0
-31 -42 0
-31 -43 0
-31 -44 0
-31 -45 0
-31 -46 0
-32 -33 0
-32 -34 0
-32 -35 0
-32 -36 0
-32 -37 0
-32 -38 0
-32 -39 0
-32 -40 0
-32 -41 0
-32 -42 0
-32 -43 0
-32 -44 0
-32 -45 0
-32 -46 0
-33 -34 0
-33 -35 0
-33 -36 0
-33 -37 0
-33 -38 0
-33 -39 0
-33 -40 0
-33 -41 0
-33 -42 0
-33 -43 0
-33 -44 0
-33 -45 0
-33 -46 0
-34 -35 0
-34 -36 0
-34 -37 0
-34 -38 0
-34 -39 0
-34 -40 0
-34 -41 0
-34 -42 0
-34 -43 0
-34 -44 0
-34 -45 0
-34 -46 0
-35 -36 0
-35 -37 0
-35 -38 0
-35 -39 0
-35 -40 0
-35 -41 0
-35 -42 0
-35 -43 0
-35 -44 0
-35 -45 0
-35 -46 0
-36 -37 0
-36 -38 0
-36 -39 0
-36 -40 0
-36 -41 0
-36 -42 0
-36 -43 0
-36 -44 0
-36 -45 0
-36 -46 0
-37 -38 0
-37 -39 0
-37 -40 0
-37 -41 0
-37 -42 0
-37 -43 0
-37 -44 0
-37 -45 0
-37 -46 0
-38 -39 0
-38 -40 0
-38 -41 0
-38 -42 0
-38 -43 0
-38 -44 0
-38 -45 0
-38 -46 0
-39 -40 0
-39 -41 0
-39 -42 0
-39 -43 0
-39 -44 0
-39 -45 0
-39 -46 0
-40 -41 0
-40 -42 0
-40 -43 0
-40 -44 0
-40 -45 0
-40 -46 0
-41 -42 0
-41 -43 0
-41 -44 0
-41 -45 0
-41 -46 0
-42 -43 0
-42 -44 0
-42 -45 0
-42 -46 0
-43 -44 0
-43 -45 0
-43 -46 0
-44 -45 0
-44 -46 0
-45 -46 0
-47 -48 0
-47 -49 0
-47 -50 0
-47 -51 0
-47 -52 0
-47 -53 0
-47 -54 0
-47 -55 0
-47 -56 0
-47 -57 0
-47 -58 0
-47 -59 0
-47 -60 0
-47 -61 0
-47 -62 0
-47 -63 0
-47 -64 0
-47 -65 0
-47 -66 0
-47 -67 0
-47 -68 0
-47 -69 0
-48 -49 0
-48 -50 0
-48 -51 0
-48 -52 0
-48 -53 0
-48 -54 0
-48 -55 0
-48 -56 0
-48 -57 0
-48 -58 0
-48 -59 0
-48 -60 0
-48 -61 0
-48 -62 0
-48 -63 0
-48 -64 0
-48 -65 0
-48 -66 0
-48 -67 0
-48 -68 0
-48 -69 0
-49 -50 0
-49 -51 0
-49 -52 0
-49 -53 0
-49 -54 0
-49 -55 0
-49 -56 0
-49 -57 0
-49 -58 0
-49 -59 0
-49 -60 0
-49 -61 0
-49 -62 0
-49 -63 0
-49 -64 0
-49 -65 0
-49 -66 0
-49 -67 0
-49 -68 0
-49 -69 0
-50 -51 0
-50 -52 0
-50 -53 0
-50 -54 0
-50 -55 0
-50 -56 0
-50 -57 0
-50 -58 0
-50 -59 0
-50 -60 0
-50 -61 0
-50 -62 0
-50 -63 0
-50 -64 0
-50 -65 0
-50 -66 0
-50 -67 0
-50 -68 0
-50 -69 0
-51 -52 0
-51 -53 0
-51 -54 0
-51 -55 0
-51 -56 0
-51 -57 0
-51 -58 0
-51 -59 0
-51 -60 0
-51 -61 0
-51 -62 0
-51 -63 0
-51 -64 0
-51 -65 0
-51 -66 0
-51 -67 0
-51 -68 0
-51 -69 0
-52 -53 0
-52 -54 0
-52 -55 0
-52 -56 0
-52 -57 0
-52 -58 0
-52 -59 0
-52 -60 0
-52 -61 0
-52 -62 0
-52 -63 0
-52 -64 0
-52 -65 0
-52 -66 0
-52 -67 0
-52 -68 0
-52 -69 0
-53 -54 0
-53 -55 0
-53 -56 0
-53 -57 0
-53 -58 0
-53 -59 0
-53 -60 0
-53 -61 0
-53 -62 0
-53 -63 0
-53 -64 0
-53 -65 0
-53 -66 0
-53 -67 0
-53 -68 0
-53 -69 0
-54 -55 0
-54 -56 0
-54 -57 0
-54 -58 0
-54 -59 0
-54 -60 0
-54 -61 0
-54 -62 0
-54 -63 0
-54 -64 0
-54 -65 0
-54 -66 0
-54 -67 0
-54 -68 0
-54 -69 0
-55 -56 0
-55 -57 0
-55 -58 0
-55 -59 0
-55 -60 0
-55 -61 0
-55 -62 0
-55 -63 0
-55 -64 0
-55 -65 0
-55 -66 0
-55 -67 0
-55 -68 0
-55 -69 0
-56 -57 0
-56 -58 0
-56 -59 0
-56 -60 0
-56 -61 0
-56 -62 0
-56 -63 0
-56 -64 0
-56 -65 0
-56 -66 0
-56 -67 0
-56 -68 0
-56 -69 0
-57 -58 0
-57 -59 0
-57 -60 0
-57 -61 0
-57 -62 0
-57 -63 0
-57 -64 0
-57 -65 0
-57 -66 0
-57 -67 0
-57 -68 0
-57 -69 0
-58 -59 0
-58 -60 0
-58 -61 0
-58 -62 0
-58 -63 0
-58 -64 0
-58 -65 0
-58 -66 0
-58 -67 0
-58 -68 0
-58 -69 0
-59 -60 0
-59 -61 0
-59 -62 0
-59 -63 0
-59 -64 0
-59 -65 0
-59 -66 0
-59 -67 0
-59 -68 0
-59 -69 0
-60 -61 0
-60 -62 0
-60 -63 0
-60 -64 0
-60 -65 0
-60 -66 0
-60 -67 0
-60 -68 0
-60 -69 0
-61 -62 0
-61 -63 0
-61 -64 0
-61 -65 0
-61 -66 0
-61 -67 0
-61 -68 0
-61 -69 0
-62 -63 0
-62 -64 0
-62 -65 0
-62 -66 0
-62 -67 0
-62 -68 0
-62 -69 0
-63 -64 0
-63 -65 0
-63 -66 0
-63 -67 0
-63 -68 0
-63 -69 0
-64 -65 0
-64 -66 0
-64 -67 0
-64 -68 0
-64 -69 0
-65 -66 0
-65 -67 0
-65 -68 0
-65 -69 0
-66 -67 0
-66 -68 0
-66 -69 0
-67 -68 0
-67 -69 0
-68 -69 0
-70 -71 0
-70 -72 0
-70 -73 0
-70 -74 0
-70 -75 0
-70 -76 0
-70 -77 0
-70 -78 0
-70 -79 0
-70 -80 0
-70 -81 0
-70 -82 0
-70 -83 0
-70 -84 0
-70 -85 0
-70 -86 0
-70 -87 0
-70 -88 0
-70 -89 0
-70 -90 0
-70 -91 0
-70 -92 0
-71 -72 0
-71 -73 0
-71 -74 0
-71 -75 0
-71 -76 0
-71 -77 0
-71 -78 0
-71 -79 0
-71 -80 0
-71 -81 0
-71 -82 0
-71 -83 0
-71 -84 0
-71 -85 0
-71 -86 0
-71 -87 0
-71 -88 0
-71 -89 0
-71 -90 0
-71 -91 0
-71 -92 0
-72 -73 0
-72 -74 0
-72 -75 0
-72 -76 0
-72 -77 0
-72 -78 0
-72 -79 0
-72 -80 0
-72 -81 0
-72 -82 0
-72 -83 0
-72 -84 0
-72 -85 0
-72 -86 0
-72 -87 0
-72 -88 0
-72 -89 0
-72 -90 0
-72 -91 0
-72 -92 0
-73 -74 0
-73 -75 0
-73 -76 0
-73 -77 0
-73 -78 0
-73 -79 0
-73 -80 0
-73 -81 0
-73 -82 0
-73 -83 0
-73 -84 0
-73 -85 0
-73 -86 0
-73 -87 0
-73 -88 0
-73 -89 0
-73 -90 0
-73 -91 0
-73 -92 0
-74 -75 0
-74 -76 0
-74 -77 0
-74 -78 0
-74 -79 0
-74 -80 0
-74 -81 0
-74 -82 0
-74 -83 0
-74 -84 0
-74 -85 0
-74 -86 0
-74 -87 0
-74 -88 0
-74 -89 0
-74 -90 0
-74 -91 0
-74 -92 0
-75 -76 0
-75 -77 0
-75 -78 0
-75 -79 0
-75 -80 0
-75 -81 0
-75 -82 0
-75 -83 0
-75 -84 0
-75 -85 0
-75 -86 0
-75 -87 0
-75 -88 0
-75 -89 0
-75 -90 0
-75 -91 0
-75 -92 0
-76 -77 0
-76 -78 0
-76 -79 0
-76 -80 0
-76 -81 0
-76 -82 0
-76 -83 0
-76 -84 0
-76 -85 0
-76 -86 0
-76 -87 0
-76 -88 0
-76 -89 0
-76 -90 0
-76 -91 0
-76 -92 0
-77 -78 0
-77 -79 0
-77 -80 0
-77 -81 0
-77 -82 0
-77 -83 0
-77 -84 0
-77 -85 0
-77 -86 0
-77 -87 0
-77 -88 0
-77 -89 0
-77 -90 0
-77 -91 0
-77 -92 0
-78 -79 0
-78 -80 0
-78 -81 0
-78 -82 0
-78 -83 0
-78 -84 0
-78 -85 0
-78 -86 0
-78 -87 0
-78 -88 0
-78 -89 0
-78 -90 0
-78 -91 0
-78 -92 0
-79 -80 0
-79 -81 0
-79 -82 0
-79 -83 0
-79 -84 0
-79 -85 0
-79 -86 0
-79 -87 0
-79 -88 0
-79 -89 0
-79 -90 0
-79 -91 0
-79 -92 0
-80 -81 0
-80 -82 0
-80 -83 0
-80 -84 0
-80 -85 0
-80 -86 0
-80 -87 0
-80 -88 0
-80 -89 0
-80 -90 0
-80 -91 0
-80 -92 0
-81 -82 0
-81 -83 0
-81 -84 0
-81 -85 0
-81 -86 0
-81 -87 0
-81 -88 0
-81 -89 0
-81 -90 0
-81 -91 0
-81 -92 0
-82 -83 0
-82 -84 0
-82 -85 0
-82 -86 0
-82 -87 0
-82 -88 0
-82 -89 0
-82 -90 0
-82 -91 0
-82 -92 0
-83 -84 0
-83 -85 0
-83 -86 0
-83 -87 0
-83 -88 0
-83 -89 0
-83 -90 0
-83 -91 0
-83 -92 0
-84 -85 0
-84 -86 0
-84 -87 0
-84 -88 0
-84 -89 0
-84 -90 0
-84 -91 0
-84 -92 0
-85 -86 0
-85 -87 0
-85 -88 0
-85 -89 0
-85 -90 0
-85 -91 0
-85 -92 0
-86 -87 0
-86 -88 0
-86 -89 0
-86 -90 0
-86 -91 0
-86 -92 0
-87 -88 0
-87 -89 0
-87 -90 0
-87 -91 0
-87 -92 0
-88 -89 0
-88 -90 0
-88 -91 0
-88 -92 0
-89 -90 0
-89 -91 0
-89 -92 0
-90 -91 0
-90 -92 0
-91 -92 0
-93 -94 0
-93 -95 0
-93 -96 0
-93 -97 0
-93 -98 0
-93 -99 0
-93 -100 0
-93 -101 0
-93 -102 0
-93 -103 0
-93 -104 0
-93 -105 0
-93 -106 0
-93 -107 0
-93 -108 0
-93 -109 0
-93 -110 0
-93 -111 0
-93 -112 0
-93 -113 0
-93 -114 0
-93 -115 0
-94 -95 0
-94 -96 0
-94 -97 0
-94 -98 0
-94 -99 0
-94 -100 0
-94 -101 0
-94 -102 0
-94 -103 0
-94 -104 0
-94 -105 0
-94 -106 0
-94 -107 0
-94 -108 0
-94 -109 0
-94 -110 0
-94 -111 0
-94 -112 0
-94 -113 0
-94 -114 0
-94 -115 0
-95 -96 0
-95 -97 0
-95 -98 0
-95 -99 0
-95 -100 0
-95 -101 0
-95 -102 0
-95 -103 0
-95 -104 0
-95 -105 0
-95 -106 0
-95 -107 0
-95 -108 0
-95 -109 0
-95 -110 0
-95 -111 0
-95 -112 0
-95 -113 0
-95 -114 0
-95 -115 0
-96 -97 0
-96 -98 0
-96 -99 0
-96 -100 0
-96 -101 0
-96 -102 0
-96 -103 0
-96 -104 0
-96 -105 0
-96 -106 0
-96 -107 0
-96 -108 0
-96 -109 0
-96 -110 0
-96 -111 0
-96 -112 0
-96 -113 0
-96 -114 0
-96 -115 0
-97 -98 0
-97 -99 0
-97 -100 0
-97 -101 0
-97 -102 0
-97 -103 0
-97 -104 0
-97 -105 0
-97 -106 0
-97 -107 0
-97 -108 0
-97 -109 0
-97 -110 0
-97 -111 0
-97 -112 0
-97 -113 0
-97 -114 0
-97 -115 0
-98 -99 0
-98 -100 0
-98 -101 0
-98 -102 0
-98 -103 0
-98 -104 0
-98 -105 0
-98 -106 0
-98 -107 0
-98 -108 0
-98 -109 0
-98 -110 0
-98 -111 0
-98 -112 0
-98 -113 0
-98 -114 0
-98 -115 0
-99 -100 0
-99 -101 0
-99 -102 0
-99 -103 0
-99 -104 0
-99 -105 0
-99 -106 0
-99 -107 0
-99 -108 0
-99 -109 0
-99 -110 0
-99 -111 0
-99 -112 0
-99 -113 0
-99 -114 0
-99 -115 0
-100 -101 0
-100 -102 0
-100 -103 0
-100 -104 0
-100 -105 0
-100 -106 0
-100 -107 0
-100 -108 0
-100 -109 0
-100 -110 0
-100 -111 0
-100 -112 0
-100 -113 0
-100 -114 0
-100 -115 0
-101 -102 0
-101 -103 0
-101 -104 0
-101 -105 0
-101 -106 0
-101 -107 0
-101 -108 0
-101 -109 0
-101 -110 0
-101 -111 0
-101 -112 0
-101 -113 0
-101 -114 0
-101 -115 0
-102 -103 0
-102 -104 0
-102 -105 0
-102 -106 0
-102 -107 0
-102 -108 0
-102 -109 0
-102 -110 0
-102 -111 0
-102 -112 0
-102 -113 0
-102 -114 0
-102 -115 0
-103 -104 0
-103 -105 0
-103 -106 0
-103 -107 0
-103 -108 0
-103 -109 0
-103 -110 0
-103 -111 0
-103 -112 0
-103 -113 0
-103 -114 0
-103 -115 0
-104 -105 0
-104 -106 0
-104 -107 0
-104 -108 0
-104 -109 0
-104 -110 0
-104 -111 0
-104 -112 0
-104 -113 0
-104 -114 0
-104 -115 0
-105 -106 0
-105 -107 0
-105 -108 0
-105 -109 0
-105 -110 0
-105 -111 0
-105 -112 0
-105 -113 0
-105 -114 0
-105 -115 0
-106 -107 0
-106 -108 0
-106 -109 0
-106 -110 0
-106 -111 0
-106 -112 0
-106 -113 0
-106 -114 0
-106 -115 0
-107 -108 0
-107 -109 0
-107 -110 0
-107 -111 0
-107 -112 0
-107 -113 0
-107 -114 0
-107 -115 0
-108 -109 0
-108 -110 0
-108 -111 0
-108 -112 0
-108 -113 0
-108 -114 0
-108 -115 0
-109 -110 0
-109 -111 0
-109 -112 0
-109 -113 0
-109 -114 0
-109 -115 0
-110 -111 0
-110 -112 0
-110 -113 0
-110 -114 0
-110 -115 0
-111 -112 0
-111 -113 0
-111 -114 0
-111 -115 0
-112 -113 0
-112 -114 0
-112 -115 0
-113 -114 0
-113 -115 0
-114 -115 0
-116 -117 0
-116 -118 0
-116 -119 0
-116 -120 0
-116 -121 0
-116 -122 0
-116 -123 0
-116 -124 0
-116 -125 0
-116 -126 0
-116 -127 0
-116 -128 0
-116 -129 0
-116 -130 0
-116 -131 0
-116 -132 0
-116 -133 0
-116 -134 0
-116 -135 0
-116 -136 0
-116 -137 0
-116 -138 0
-117 -118 0
-117 -119 0
-117 -120 0
-117 -121 0
-117 -122 0
-117 -123 0
-117 -124 0
-117 -125 0
-117 -126 0
-117 -127 0
-117 -128 0
-117 -129 0
-117 -130 0
-117 -131 0
-117 -132 0
-117 -133 0
-117 -134 0
-117 -135 0
-117 -136 0
-117 -137 0
-117 -138 0
-118 -119 0
-118 -120 0
-118 -121 0
-118 -122 0
-118 -123 0
-118 -124 0
-118 -125 0
-118 -126 0
-118 -127 0
-118 -128 0
-118 -129 0
-118 -130 0
-118 -131 0
-118 -132 0
-118 -133 0
-118 -134 0
-118 -135 0
-118 -136 0
-118 -137 0
-118 -138 0
-119 -120 0
-119 -121 0
-119 -122 0
-119 -123 0
-119 -124 0
-119 -125 0
-119 -126 0
-119 -127 0
-119 -128 0
-119 -129 0
-119 -130 0
-119 -131 0
-119 -132 0
-119 -133 0
-119 -134 0
-119 -135 0
-119 -136 0
-119 -137 0
-119 -138 0
-120 -121 0
-120 -122 0
-120 -123 0
-120 -124 0
-120 -125 0
-120 -126 0
-120 -127 0
-120 -128 0
-120 -129 0
-120 -130 0
-120 -131 0
-120 -132 0
-120 -133 0
-120 -134 0
-120 -135 0
-120 -136 0
-120 -137 0
-120 -138 0
-121 -122 0
-121 -123 0
-121 -124 0
-121 -125 0
-121 -126 0
-121 -127 0
-121 -128 0
-121 -129 0
-121 -130 0
-121 -131 0
-121 -132 0
-121 -133 0
-121 -134 0
-121 -135 0
-121 -136 0
-121 -137 0
-121 -138 0
-122 -123 0
-122 -124 0
-122 -125 0
-122 -126 0
-122 -127 0
-122 -128 0
-122 -129 0
-122 -130 0
-122 -131 0
-122 -132 0
-122 -133 0
-122 -134 0
-122 -135 0
-122 -136 0
-122 -137 0
-122 -138 0
-123 -124 0
-123 -125 0
-123 -126 0
-123 -127 0
-123 -128 0
-123 -129 0
-123 -130 0
-123 -131 0
-123 -132 0
-123 -133 0
-123 -134 0
-123 -135 0
-123 -136 0
-123 -137 0
-123 -138 0
-124 -125 0
-124 -126 0
-124 -127 0
-124 -128 0
-124 -129 0
-124 -130 0
-124 -131 0
-124 -132 0
-124 -133 0
-124 -134 0
-124 -135 0
-124 -136 0
-124 -137 0
-124 -138 0
-125 -126 0
-125 -127 0
-125 -128 0
-125 -129 0
-125 -130 0
-125 -131 0
-125 -132 0
-125 -133 0
-125 -134 0
-125 -135 0
-125 -136 0
-125 -137 0
-125 -138 0
-126 -127 0
-126 -128 0
-126 -129 0
-126 -130 0
-126 -131 0
-126 -132 0
-126 -133 0
-126 -134 0
-126 -135 0
-126 -136 0
-126 -137 0
-126 -138 0
-127 -128 0
-127 -129 0
-127 -130 0
-127 -131 0
-127 -132 0
-127 -133 0
-127 -134 0
-127 -135 0
-127 -136 0
-127 -137 0
-127 -138 0
-128 -129 0
-128 -130 0
-128 -131 0
-128 -132 0
-128 -133 0
-128 -134 0
-128 -135 0
-128 -136 0
-128 -137 0
-128 -138 0
-129 -130 0
-129 -131 0
-129 -132 0
-129 -133 0
-129 -134 0
-129 -135 0
-129 -136 0
-129 -137 0
-129 -138 0
-130 -131 0
-130 -132 0
-130 -133 0
-130 -134 0
-130 -135 0
-130 -136 0
-130 -137 0
-130 -138 0
-131 -132 0
-131 -133 0
-131 -134 0
-131 -135 0
-131 -136 0
-131 -137 0
-131 -138 0
-132 -133 0
-132 -134 0
-132 -135 0
-132 -136 0
-132 -137 0
-132 -138 0
-133 -134 0
-133 -135 0
-133 -136 0
-133 -137 0
-133 -138 0
-134 -135 0
-134 -136 0
-134 -137 0
-134 -138 0
-135 -136 0
-135 -137 0
-135 -138 0
-136 -137 0
-136 -138 0
-137 -138 0
-25 -47 0
-26 -47 0
-27 -47 0
-28 -47 0
-29 -47 0
-30 -47 0
-31 -47 0
-32 -47 0
-33 -47 0
-34 -47 0
-35 -47 0
-36 -47 0
-37 -47 0
-38 -47 0
-39 -47 0
-40 -47 0
-41 -47 0
-42 -47 0
-43 -47 0
-44 -47 0
-45 -47 0
-46 -47 0
-26 -48 0
-27 -48 0
-28 -48 0
-29 -48 0
-30 -48 0
-31 -48 0
-32 -48 0
-33 -48 0
-34 -48 0
-35 -48 0
-36 -48 0
-37 -48 0
-38 -48 0
-39 -48 0
-40 -48 0
-41 -48 0
-42 -48 0
-43 -48 0
-44 -48 0
-45 -48 0
-46 -48 0
-27 -49 0
-28 -49 0
-29 -49 0
-30 -49 0
-31 -49 0
-32 -49 0
-33 -49 0
-34 -49 0
-35 -49 0
-36 -49 0
-37 -49 0
-38 -49 0
-39 -49 0
-40 -49 0
-41 -49 0
-42 -49 0
-43 -49 0
-44 -49 0
-45 -49 0
-46 -49 0
-28 -50 0
-29 -50 0
-30 -50 0
-31 -50 0
-32 -50 0
-33 -50 0
-34 -50 0
-35 -50 0
-36 -50 0
-37 -50 0
-38 -50 0
-39 -50 0
-40 -50 0
-41 -50 0
-42 -50 0
-43 -50 0
-44 -50 0
-45 -50 0
-46 -50 0
-29 -51 0
-30 -51 0
-31 -51 0
-32 -51 0
-33 -51 0
-34 -51 0
-35 -51 0
-36 -51 0
-37 -51 0
-38 -51 0
-39 -51 0
-40 -51 0
-41 -51 0
-42 -51 0
-43 -51 0
-44 -51 0
-45 -51 0
-46 -51 0
-30 -52 0
-31 -52 0
-32 -52 0
-33 -52 0
-34 -52 0
-35 -52 0
-36 -52 0
-37 -52 0
-38 -52 0
-39 -52 0
-40 -52 0
-41 -52 0
-42 -52 0
-43 -52 0
-44 -52 0
-45 -52 0
-46 -52 0
-31 -53 0
-32 -53 0
-33 -53 0
-34 -53 0
-35 -53 0
-36 -53 0
-37 -53 0
-38 -53 0
-39 -53 0
-40 -53 0
-41 -53 0
-42 -53 0
-43 -53 0
-44 -53 0
-45 -53 0
-46 -53 0
-32 -54 0
-33 -54 0
-34 -54 0
-35 -54 0
-36 -54 0
-37 -54 0
-38 -54 0
-39 -54 0
-40 -54 0
-41 -54 0
-42 -54 0
-43 -54 0
-44 -54 0
-45 -54 0
-46 -54 0
-33 -55 0
-34 -55 0
-35 -55 0
-36 -55 0
-37 -55 0
-38 -55 0
-39 -55 0
-40 -55 0
-41 -55 0
-42 -55 0
-43 -55 0
-44 -55 0
-45 -55 0
-46 -55 0
-34 -56 0
-35 -56 0
-36 -56 0
-37 -56 0
-38 -56 0
-39 -56 0
-40 -56 0
-41 -56 0
-42 -56 0
-43 -56 0
-44 -56 0
-45 -56 0
-46 -56 0
-35 -57 0
-36 -57 0
-37 -57 0
-38 -57 0
-39 -57 0
-40 -57 0
-41 -57 0
-42 -57 0
-43 -57 0
-44 -57 0
-45 -57 0
-46 -57 0
-36 -58 0
-37 -58 0
-38 -58 0
-39 -58 0
-40 -58 0
-41 -58 0
-42 -58 0
-43 -58 0
-44 -58 0
-45 -58 0
-46 -58 0
-37 -59 0
-38 -59 0
-39 -59 0
-40 -59 0
-41 -59 0
-42 -59 0
-43 -59 0
-44 -59 0
-45 -59 0
-46 -59 0
-38 -60 0
-39 -60 0
-40 -60 0
-41 -60 0
-42 -60 0
-43 -60 0
-44 -60 0
-45 -60 0
-46 -60 0
-39 -61 0
-40 -61 0
-41 -61 0
-42 -61 0
-43 -61 0
-44 -61 0
-45 -61 0
-46 -61 0
-40 -62 0
-41 -62 0
-42 -62 0
-43 -62 0
-44 -62 0
-45 -62 0
-46 -62 0
-41 -63 0
-42 -63 0
-43 -63 0
-44 -63 0
-45 -63 0
-46 -63 0
-42 -64 0
-43 -64 0
-44 -64 0
-45 -64 0
-46 -64 0
-43 -65 0
-44 -65 0
-45 -65 0
-46 -65 0
-44 -66 0
-45 -66 0
-46 -66 0
-45 -67 0
-46 -67 0
-46 -68 0
-25 -70 0
-26 -70 0
-27 -70 0
-28 -70 0
-29 -70 0
-30 -70 0
-31 -70 0
-32 -70 0
-33 -70 0
-34 -70 0
-35 -70 0
-36 -70 0
-37 -70 0
-38 -70 0
-39 -70 0
-40 -70 0
-41 -70 0
-42 -70 0
-43 -70 0
-44 -70 0
-45 -70 0
-46 -70 0
-26 -71 0
-27 -71 0
-28 -71 0
-29 -71 0
-30 -71 0
-31 -71 0
-32 -71 0
-33 -71 0
-34 -71 0
-35 -71 0
-36 -71 0
-37 -71 0
-38 -71 0
-39 -71 0
-40 -71 0
-41 -71 0
-42 -71 0
-43 -71 0
-44 -71 0
-45 -71 0
-46 -71 0
-27 -72 0
-28 -72 0
-29 -72 0
-30 -72 0
-31 -72 0
-32 -72 0
-33 -72 0
-34 -72 0
-35 -72 0
-36 -72 0
-37 -72 0
-38 -72 0
-39 -72 0
-40 -72 0
-41 -72 0
-42 -72 0
-43 -72 0
-44 -72 0
-45 -72 0
-46 -72 0
-28 -73 0
-29 -73 0
-30 -73 0
-31 -73 0
-32 -73 0
-33 -73 0
-34 -73 0
-35 -73 0
-36 -73 0
-37 -73 0
-38 -73 0
-39 -73 0
-40 -73 0
-41 -73 0
-42 -73 0
-43 -73 0
-44 -73 0
-45 -73 0
-46 -73 0
-29 -74 0
-30 -74 0
-31 -74 0
-32 -74 0
-33 -74 0
-34 -74 0
-35 -74 0
-36 -74 0
-37 -74 0
-38 -74 0
-39 -74 0
-40 -74 0
-41 -74 0
-42 -74 0
-43 -74 0
-44 -74 0
-45 -74 0
-46 -74 0
-30 -75 0
-31 -75 0
-32 -75 0
-33 -75 0
-34 -75 0
-35 -75 0
-36 -75 0
-37 -75 0
-38 -75 0
-39 -75 0
-40 -75 0
-41 -75 0
-42 -75 0
-43 -75 0
-44 -75 0
-45 -75 0
-46 -75 0
-31 -76 0
-32 -76 0
-33 -76 0
-34 -76 0
-35 -76 0
-36 -76 0
-37 -76 0
-38 -76 0
-39 -76 0
-40 -76 0
-41 -76 0
-42 -76 0
-43 -76 0
-44 -76 0
-45 -76 0
-46 -76 0
-32 -77 0
-33 -77 0
-34 -77 0
-35 -77 0
-36 -77 0
-37 -77 0
-38 -77 0
-39 -77 0
-40 -77 0
-41 -77 0
-42 -77 0
-43 -77 0
-44 -77 0
-45 -77 0
-46 -77 0
-33 -78 0
-34 -78 0
-35 -78 0
-36 -78 0
-37 -78 0
-38 -78 0
-39 -78 0
-40 -78 0
-41 -78 0
-42 -78 0
-43 -78 0
-44 -78 0
-45 -78 0
-46 -78 0
-34 -79 0
-35 -79 0
-36 -79 0
-37 -79 0
-38 -79 0
-39 -79 0
-40 -79 0
-41 -79 0
-42 -79 0
-43 -79 0
-44 -79 0
-45 -79 0
-46 -79 0
-35 -80 0
-36 -80 0
-37 -80 0
-38 -80 0
-39 -80 0
-40 -80 0
-41 -80 0
-42 -80 0
-43 -80 0
-44 -80 0
-45 -80 0
-46 -80 0
-36 -81 0
-37 -81 0
-38 -81 0
-39 -81 0
-40 -81 0
-41 -81 0
-42 -81 0
-43 -81 0
-44 -81 0
-45 -81 0
-46 -81 0
-37 -82 0
-38 -82 0
-39 -82 0
-40 -82 0
-41 -82 0
-42 -82 0
-43 -82 0
-44 -82 0
-45 -82 0
-46 -82 0
-38 -83 0
-39 -83 0
-40 -83 0
-41 -83 0
-42 -83 0
-43 -83 0
-44 -83 0
-45 -83 0
-46 -83 0
-39 -84 0
-40 -84 0
-41 -84 0
-42 -84 0
-43 -84 0
-44 -84 0
-45 -84 0
-46 -84 0
-40 -85 0
-41 -85 0
-42 -85 0
-43 -85 0
-44 -85 0
-45 -85 0
-46 -85 0
-41 -86 0
-42 -86 0
-43 -86 0
-44 -86 0
-45 -86 0
-46 -86 0
-42 -87 0
-43 -87 0
-44 -87 0
-45 -87 0
-46 -87 0
-43 -88 0
-44 -88 0
-45 -88 0
-46 -88 0
-44 -89 0
-45 -89 0
-46 -89 0
-45 -90 0
-46 -90 0
-46 -91 0
-25 -93 0
-26 -93 0
-27 -93 0
-28 -93 0
-29 -93 0
-30 -93 0
-31 -93 0
-32 -93 0
-33 -93 0
-34 -93 0
-35 -93 0
-36 -93 0
-37 -93 0
-38 -93 0
-39 -93 0
-40 -93 0
-41 -93 0
-42 -93 0
-43 -93 0
-44 -93 0
-45 -93 0
-46 -93 0
-26 -94 0
-27 -94 0
-28 -94 0
-29 -94 0
-30 -94 0
-31 -94 0
-32 -94 0
-33 -94 0
-34 -94 0
-35 -94 0
-36 -94 0
-37 -94 0
-38 -94 0
-39 -94 0
-40 -94 0
-41 -94 0
-42 -94 0
-43 -94 0
-44 -94 0
-45 -94 0
-46 -94 0
-27 -95 0
-28 -95 0
-29 -95 0
-30 -95 0
-31 -95 0
-32 -95 0
-33 -95 0
-34 -95 0
-35 -95 0
-36 -95 0
-37 -95 0
-38 -95 0
-39 -95 0
-40 -95 0
-41 -95 0
-42 -95 0
-43 -95 0
-44 -95 0
-45 -95 0
-46 -95 0
-28 -96 0
-29 -96 0
-30 -96 0
-31 -96 0
-32 -96 0
-33 -96 0
-34 -96 0
-35 -96 0
-36 -96 0
-37 -96 0
-38 -96 0
-39 -96 0
-40 -96 0
-41 -96 0
-42 -96 0
-43 -96 0
-44 -96 0
-45 -96 0
-46 -96 0
-29 -97 0
-30 -97 0
-31 -97 0
-32 -97 0
-33 -97 0
-34 -97 0
-35 -97 0
-36 -97 0
-37 -97 0
-38 -97 0
-39 -97 0
-40 -97 0
-41 -97 0
-42 -97 0
-43 -97 0
-44 -97 0
-45 -97 0
-46 -97 0
-30 -98 0
-31 -98 0
-32 -98 0
-33 -98 0
-34 -98 0
-35 -98 0
-36 -98 0
-37 -98 0
-38 -98 0
-39 -98 0
-40 -98 0
-41 -98 0
-42 -98 0
-43 -98 0
-44 -98 0
-45 -98 0
-46 -98 0
-31 -99 0
-32 -99 0
-33 -99 0
-34 -99 0
-35 -99 0
-36 -99 0
-37 -99 0
-38 -99 0
-39 -99 0
-40 -99 0
-41 -99 0
-42 -99 0
-43 -99 0
-44 -99 0
-45 -99 0
-46 -99 0
-32 -100 0
-33 -100 0
-34 -100 0
-35 -100 0
-36 -100 0
-37 -100 0
-38 -100 0
-39 -100 0
-40 -100 0
-41 -100 0
-42 -100 0
-43 -100 0
-44 -100 0
-45 -100 0
-46 -100 0
-33 -101 0
-34 -101 0
-35 -101 0
-36 -101 0
-37 -101 0
-38 -101 0
-39 -101 0
-40 -101 0
-41 -101 0
-42 -101 0
-43 -101 0
-44 -101 0
-45 -101 0
-46 -101 0
-34 -102 0
-35 -102 0
-36 -102 0
-37 -102 0
-38 -102 0
-39 -102 0
-40 -102 0
-41 -102 0
-42 -102 0
-43 -102 0
-44 -102 0
-45 -102 0
-46 -102 0
-35 -103 0
-36 -103 0
-37 -103 0
-38 -103 0
-39 -103 0
-40 -103 0
-41 -103 0
-42 -103 0
-43 -103 0
-44 -103 0
-45 -103 0
-46 -103 0
-36 -104 0
-37 -104 0
-38 -104 0
-39 -104 0
-40 -104 0
-41 -104 0
-42 -104 0
-43 -104 0
-44 -104 0
-45 -104 0
-46 -104 0
-37 -105 0
-38 -105 0
-39 -105 0
-40 -105 0
-41 -105 0
-42 -105 0
-43 -105 0
-44 -105 0
-45 -105 0
-46 -105 0
-38 -106 0
-39 -106 0
-40 -106 0
-41 -106 0
-42 -106 0
-43 -106 0
-44 -106 0
-45 -106 0
-46 -106 0
-39 -107 0
-40 -107 0
-41 -107 0
-42 -107 0
-43 -107 0
-44 -107 0
-45 -107 0
-46 -107 0
-40 -108 0
-41 -108 0
-42 -108 0
-43 -108 0
-44 -108 0
-45 -108 0
-46 -108 0
-41 -109 0
-42 -109 0
-43 -109 0
-44 -109 0
-45 -109 0
-46 -109 0
-42 -110 0
-43 -110 0
-44 -110 0
-45 -110 0
-46 -110 0
-43 -111 0
-44 -111 0
-45 -111 0
-46 -111 0
-44 -112 0
-45 -112 0
-46 -112 0
-45 -113 0
-46 -113 0
-46 -114 0
-25 -116 0
-26 -116 0
-27 -116 0
-28 -116 0
-29 -116 0
-30 -116 0
-31 -116 0
-32 -116 0
-33 -116 0
-34 -116 0
-35 -116 0
-36 -116 0
-37 -116 0
-38 -116 0
-39 -116 0
-40 -116 0
-41 -116 0
-42 -116 0
-43 -116 0
-44 -116 0
-45 -116 0
-46 -116 0
-26 -117 0
-27 -117 0
-28 -117 0
-29 -117 0
-30 -117 0
-31 -117 0
-32 -117 0
-33 -117 0
-34 -117 0
-35 -117 0
-36 -117 0
-37 -117 0
-38 -117 0
-39 -117 0
-40 -117 0
-41 -117 0
-42 -117 0
-43 -117 0
-44 -117 0
-45 -117 0
-46 -117 0
-27 -118 0
-28 -118 0
-29 -118 0
-30 -118 0
-31 -118 0
-32 -118 0
-33 -118 0
-34 -118 0
-35 -118 0
-36 -118 0
-37 -118 0
-38 -118 0
-39 -118 0
-40 -118 0
-41 -118 0
-42 -118 0
-43 -118 0
-44 -118 0
-45 -118 0
-46 -118 0
-28 -119 0
-29 -119 0
-30 -119 0
-31 -119 0
-32 -119 0
-33 -119 0
-34 -119 0
-35 -119 0
-36 -119 0
-37 -119 0
-38 -119 0
-39 -119 0
-40 -119 0
-41 -119 0
-42 -119 0
-43 -119 0
-44 -119 0
-45 -119 0
-46 -119 0
-29 -120 0
-30 -120 0
-31 -120 0
-32 -120 0
-33 -120 0
-34 -120 0
-35 -120 0
-36 -120 0
-37 -120 0
-38 -120 0
-39 -120 0
-40 -120 0
-41 -120 0
-42 -120 0
-43 -120 0
-44 -120 0
-45 -120 0
-46 -120 0
-30 -121 0
-31 -121 0
-32 -121 0
-33 -121 0
-34 -121 0
-35 -121 0
-36 -121 0
-37 -121 0
-38 -121 0
-39 -121 0
-40 -121 0
-41 -121 0
-42 -121 0
-43 -121 0
-44 -121 0
-45 -121 0
-46 -121 0
-31 -122 0
-32 -122 0
-33 -122 0
-34 -122 0
-35 -122 0
-36 -122 0
-37 -122 0
-38 -122 0
-39 -122 0
-40 -122 0
-41 -122 0
-42 -122 0
-43 -122 0
-44 -122 0
-45 -122 0
-46 -122 0
-32 -123 0
-33 -123 0
-34 -123 0
-35 -123 0
-36 -123 0
-37 -123 0
-38 -123 0
-39 -123 0
-40 -123 0
-41 -123 0
-42 -123 0
-43 -123 0
-44 -123 0
-45 -123 0
-46 -123 0
-33 -124 0
-34 -124 0
-35 -124 0
-36 -124 0
-37 -124 0
-38 -124 0
-39 -124 0
-40 -124 0
-41 -124 0
-42 -124 0
-43 -124 0
-44 -124 0
-45 -124 0
-46 -124 0
-34 -125 0
-35 -125 0
-36 -125 0
-37 -125 0
-38 -125 0
-39 -125 0
-40 -125 0
-41 -125 0
-42 -125 0
-43 -125 0
-44 -125 0
-45 -125 0
-46 -125 0
-35 -126 0
-36 -126 0
-37 -126 0
-38 -126 0
-39 -126 0
-40 -126 0
-41 -126 0
-42 -126 0
-43 -126 0
-44 -126 0
-45 -126 0
-46 -126 0
-36 -127 0
-37 -127 0
-38 -127 0
-39 -127 0
-40 -127 0
-41 -127 0
-42 -127 0
-43 -127 0
-44 -127 0
-45 -127 0
-46 -127 0
-37 -128 0
-38 -128 0
-39 -128 0
-40 -128 0
-41 -128 0
-42 -128 0
-43 -128 0
-44 -128 0
-45 -128 0
-46 -128 0
-38 -129 0
-39 -129 0
-40 -129 0
-41 -129 0
-42 -129 0
-43 -129 0
-44 -129 0
-45 -129 0
-46 -129 0
-39 -130 0
-40 -130 0
-41 -130 0
-42 -130 0
-43 -130 0
-44 -130 0
-45 -130 0
-46 -130 0
-40 -131 0
-41 -131 0
-42 -131 0
-43 -131 0
-44 -131 0
-45 -131 0
-46 -131 0
-41 -132 0
-42 -132 0
-43 -132 0
-44 -132 0
-45 -132 0
-46 -132 0
-42 -133 0
-43 -133 0
-44 -133 0
-45 -133 0
-46 -133 0
-43 -134 0
-44 -134 0
-45 -134 0
-46 -134 0
-44 -135 0
-45 -135 0
-46 -135 0
-45 -136 0
-46 -136 0
-46 -137 0
-48 -70 0
-49 -70 0
-50 -70 0
-51 -70 0
-52 -70 0
-53 -70 0
-54 -70 0
-55 -70 0
-56 -70 0
-57 -70 0
-58 -70 0
-59 -70 0
-60 -70 0
-61 -70 0
-62 -70 0
-63 -70 0
-64 -70 0
-65 -70 0
-66 -70 0
-67 -70 0
-68 -70 0
-69 -70 0
-49 -71 0
-50 -71 0
-51 -71 0
-52 -71 0
-53 -71 0
-54 -71 0
-55 -71 0
-56 -71 0
-57 -71 0
-58 -71 0
-59 -71 0
-60 -71 0
-61 -71 0
-62 -71 0
-63 -71 0
-64 -71 0
-65 -71 0
-66 -71 0
-67 -71 0
-68 -71 0
-69 -71 0
-50 -72 0
-51 -72 0
-52 -72 0
-53 -72 0
-54 -72 0
-55 -72 0
-56 -72 0
-57 -72 0
-58 -72 0
-59 -72 0
-60 -72 0
-61 -72 0
-62 -72 0
-63 -72 0
-64 -72 0
-65 -72 0
-66 -72 0
-67 -72 0
-68 -72 0
-69 -72 0
-51 -73 0
-52 -73 0
-53 -73 0
-54 -73 0
-55 -73 0
-56 -73 0
-57 -73 0
-58 -73 0
-59 -73 0
-60 -73 0
-61 -73 0
-62 -73 0
-63 -73 0
-64 -73 0
-65 -73 0
-66 -73 0
-67 -73 0
-68 -73 0
-69 -73 0
-52 -74 0
-53 -74 0
-54 -74 0
-55 -74 0
-56 -74 0
-57 -74 0
-58 -74 0
-59 -74 0
-60 -74 0
-61 -74 0
-62 -74 0
-63 -74 0
-64 -74 0
-65 -74 0
-66 -74 0
-67 -74 0
-68 -74 0
-69 -74 0
-53 -75 0
-54 -75 0
-55 -75 0
-56 -75 0
-57 -75 0
-58 -75 0
-59 -75 0
-60 -75 0
-61 -75 0
-62 -75 0
-63 -75 0
-64 -75 0
-65 -75 0
-66 -75 0
-67 -75 0
-68 -75 0
-69 -75 0
-54 -76 0
-55 -76 0
-56 -76 0
-57 -76 0
-58 -76 0
-59 -76 0
-60 -76 0
-61 -76 0
-62 -76 0
-63 -76 0
-64 -76 0
-65 -76 0
-66 -76 0
-67 -76 0
-68 -76 0
-69 -76 0
-55 -77 0
-56 -77 0
-57 -77 0
-58 -77 0
-59 -77 0
-60 -77 0
-61 -77 0
-62 -77 0
-63 -77 0
-64 -77 0
-65 -77 0
-66 -77 0
-67 -77 0
-68 -77 0
-69 -77 0
-56 -78 0
-57 -78 0
-58 -78 0
-59 -78 0
-60 -78 0
-61 -78 0
-62 -78 0
-63 -78 0
-64 -78 0
-65 -78 0
-66 -78 0
-67 -78 0
-68 -78 0
-69 -78 0
-57 -79 0
-58 -79 0
-59 -79 0
-60 -79 0
-61 -79 0
-62 -79 0
-63 -79 0
-64 -79 0
-65 -79 0
-66 -79 0
-67 -79 0
-68 -79 0
-69 -79 0
-58 -80 0
-59 -80 0
-60 -80 0
-61 -80 0
-62 -80 0
-63 -80 0
-64 -80 0
-65 -80 0
-66 -80 0
-67 -80 0
-68 -80 0
-69 -80 0
-59 -81 0
-60 -81 0
-61 -81 0
-62 -81 0
-63 -81 0
-64 -81 0
-65 -81 0
-66 -81 0
-67 -81 0
-68 -81 0
-69 -81 0
-60 -82 0
-61 -82 0
-62 -82 0
-63 -82 0
-64 -82 0
-65 -82 0
-66 -82 0
-67 -82 0
-68 -82 0
-69 -82 0
-61 -83 0
-62 -83 0
-63 -83 0
-64 -83 0
-65 -83 0
-66 -83 0
-67 -83 0
-68 -83 0
-69 -83 0
-62 -84 0
-63 -84 0
-64 -84 0
-65 -84 0
-66 -84 0
-67 -84 0
-68 -84 0
-69 -84 0
-63 -85 0
-64 -85 0
-65 -85 0
-66 -85 0
-67 -85 0
-68 -85 0
-69 -85 0
-64 -86 0
-65 -86 0
-66 -86 0
-67 -86 0
-68 -86 0
-69 -86 0
-65 -87 0
-66 -87 0
-67 -87 0
-68 -87 0
-69 -87 0
-66 -88 0
-67 -88 0
-68 -88 0
-69 -88 0
-67 -89 0
-68 -89 0
-69 -89 0
-68 -90 0
-69 -90 0
-69 -91 0
-48 -93 0
-49 -93 0
-50 -93 0
-51 -93 0
-52 -93 0
-53 -93 0
-54 -93 0
-55 -93 0
-56 -93 0
-57 -93 0
-58 -93 0
-59 -93 0
-60 -93 0
-61 -93 0
-62 -93 0
-63 -93 0
-64 -93 0
-65 -93 0
-66 -93 0
-67 -93 0
-68 -93 0
-69 -93 0
-49 -94 0
-50 -94 0
-51 -94 0
-52 -94 0
-53 -94 0
-54 -94 0
-55 -94 0
-56 -94 0
-57 -94 0
-58 -94 0
-59 -94 0
-60 -94 0
-61 -94 0
-62 -94 0
-63 -94 0
-64 -94 0
-65 -94 0
-66 -94 0
-67 -94 0
-68 -94 0
-69 -94 0
-50 -95 0
-51 -95 0
-52 -95 0
-53 -95 0
-54 -95 0
-55 -95 0
-56 -95 0
-57 -95 0
-58 -95 0
-59 -95 0
-60 -95 0
-61 -95 0
-62 -95 0
-63 -95 0
-64 -95 0
-65 -95 0
-66 -95 0
-67 -95 0
-68 -95 0
-69 -95 0
-51 -96 0
-52 -96 0
-53 -96 0
-54 -96 0
-55 -96 0
-56 -96 0
-57 -96 0
-58 -96 0
-59 -96 0
-60 -96 0
-61 -96 0
-62 -96 0
-63 -96 0
-64 -96 0
-65 -96 0
-66 -96 0
-67 -96 0
-68 -96 0
-69 -96 0
-52 -97 0
-53 -97 0
-54 -97 0
-55 -97 0
-56 -97 0
-57 -97 0
-58 -97 0
-59 -97 0
-60 -97 0
-61 -97 0
-62 -97 0
-63 -97 0
-64 -97 0
-65 -97 0
-66 -97 0
-67 -97 0
-68 -97 0
-69 -97 0
-53 -98 0
-54 -98 0
-55 -98 0
-56 -98 0
-57 -98 0
-58 -98 0
-59 -98 0
-60 -98 0
-61 -98 0
-62 -98 0
-63 -98 0
-64 -98 0
-65 -98 0
-66 -98 0
-67 -98 0
-68 -98 0
-69 -98 0
-54 -99 0
-55 -99 0
-56 -99 0
-57 -99 0
-58 -99 0
-59 -99 0
-60 -99 0
-61 -99 0
-62 -99 0
-63 -99 0
-64 -99 0
-65 -99 0
-66 -99 0
-67 -99 0
-68 -99 0
-69 -99 0
-55 -100 0
-56 -100 0
-57 -100 0
-58 -100 0
-59 -100 0
-60 -100 0
-61 -100 0
-62 -100 0
-63 -100 0
-64 -100 0
-65 -100 0
-66 -100 0
-67 -100 0
-68 -100 0
-69 -100 0
-56 -101 0
-57 -101 0
-58 -101 0
-59 -101 0
-60 -101 0
-61 -101 0
-62 -101 0
-63 -101 0
-64 -101 0
-65 -101 0
-66 -101 0
-67 -101 0
-68 -101 0
-69 -101 0
-57 -102 0
-58 -102 0
-59 -102 0
-60 -102 0
-61 -102 0
-62 -102 0
-63 -102 0
-64 -102 0
-65 -102 0
-66 -102 0
-67 -102 0
-68 -102 0
-69 -102 0
-58 -103 0
-59 -103 0
-60 -103 0
-61 -103 0
-62 -103 0
-63 -103 0
-64 -103 0
-65 -103 0
-66 -103 0
-67 -103 0
-68 -103 0
-69 -103 0
-59 -104 0
-60 -104 0
-61 -104 0
-62 -104 0
-63 -104 0
-64 -104 0
-65 -104 0
-66 -104 0
-67 -104 0
-68 -104 0
-69 -104 0
-60 -105 0
-61 -105 0
-62 -105 0
-63 -105 0
-64 -105 0
-65 -105 0
-66 -105 0
-67 -105 0
-68 -105 0
-69 -105 0
-61 -106 0
-62 -106 0
-63 -106 0
-64 -106 0
-65 -106 0
-66 -106 0
-67 -106 0
-68 -106 0
-69 -106 0
-62 -107 0
-63 -107 0
-64 -107 0
-65 -107 0
-66 -107 0
-67 -107 0
-68 -107 0
-69 -107 0
-63 -108 0
-64 -108 0
-65 -108 0
-66 -108 0
-67 -108 0
-68 -108 0
-69 -108 0
-64 -109 0
-65 -109 0
-66 -109 0
-67 -109 0
-68 -109 0
-69 -109 0
-65 -110 0
-66 -110 0
-67 -110 0
-68 -110 0
-69 -110 0
-66 -111 0
-67 -111 0
-68 -111 0
-69 -111 0
-67 -112 0
-68 -112 0
-69 -112 0
-68 -113 0
-69 -113 0
-69 -114 0
-48 -116 0
-49 -116 0
-50 -116 0
-51 -116 0
-52 -116 0
-53 -116 0
-54 -116 0
-55 -116 0
-56 -116 0
-57 -116 0
-58 -116 0
-59 -116 0
-60 -116 0
-61 -116 0
-62 -116 0
-63 -116 0
-64 -116 0
-65 -116 0
-66 -116 0
-67 -116 0
-68 -116 0
-69 -116 0
-49 -117 0
-50 -117 0
-51 -117 0
-52 -117 0
-53 -117 0
-54 -117 0
-55 -117 0
-56 -117 0
-57 -117 0
-58 -117 0
-59 -117 0
-60 -117 0
-61 -117 0
-62 -117 0
-63 -117 0
-64 -117 0
-65 -117 0
-66 -117 0
-67 -117 0
-68 -117 0
-69 -117 0
-50 -118 0
-51 -118 0
-52 -118 0
-53 -118 0
-54 -118 0
-55 -118 0
-56 -118 0
-57 -118 0
-58 -118 0
-59 -118 0
-60 -118 0
-61 -118 0
-62 -118 0
-63 -118 0
-64 -118 0
-65 -118 0
-66 -118 0
-67 -118 0
-68 -118 0
-69 -118 0
-51 -119 0
-52 -119 0
-53 -119 0
-54 -119 0
-55 -119 0
-56 -119 0
-57 -119 0
-58 -119 0
-59 -119 0
-60 -119 0
-61 -119 0
-62 -119 0
-63 -119 0
-64 -119 0
-65 -119 0
-66 -119 0
-67 -119 0
-68 -119 0
-69 -119 0
-52 -120 0
-53 -120 0
-54 -120 0
-55 -120 0
-56 -120 0
-57 -120 0
-58 -120 0
-59 -120 0
-60 -120 0
-61 -120 0
-62 -120 0
-63 -120 0
-64 -120 0
-65 -120 0
-66 -120 0
-67 -120 0
-68 -120 0
-69 -120 0
-53 -121 0
-54 -121 0
-55 -121 0
-56 -121 0
-57 -121 0
-58 -121 0
-59 -121 0
-60 -121 0
-61 -121 0
-62 -121 0
-63 -121 0
-64 -121 0
-65 -121 0
-66 -121 0
-67 -121 0
-68 -121 0
-69 -121 0
-54 -122 0
-55 -122 0
-56 -122 0
-57 -122 0
-58 -122 0
-59 -122 0
-60 -122 0
-61 -122 0
-62 -122 0
-63 -122 0
-64 -122 0
-65 -122 0
-66 -122 0
-67 -122 0
-68 -122 0
-69 -122 0
-55 -123 0
-56 -123 0
-57 -123 0
-58 -123 0
-59 -123 0
-60 -123 0
-61 -123 0
-62 -123 0
-63 -123 0
-64 -123 0
-65 -123 0
-66 -123 0
-67 -123 0
-68 -123 0
-69 -123 0
-56 -124 0
-57 -124 0
-58 -124 0
-59 -124 0
-60 -124 0
-61 -124 0
-62 -124 0
-63 -124 0
-64 -124 0
-65 -124 0
-66 -124 0
-67 -124 0
-68 -124 0
-69 -124 0
-57 -125 0
-58 -125 0
-59 -125 0
-60 -125 0
-61 -125 0
-62 -125 0
-63 -125 0
-64 -125 0
-65 -125 0
-66 -125 0
-67 -125 0
-68 -125 0
-69 -125 0
-58 -126 0
-59 -126 0
-60 -126 0
-61 -126 0
-62 -126 0
-63 -126 0
-64 -126 0
-65 -126 0
-66 -126 0
-67 -126 0
-68 -126 0
-69 -126 0
-59 -127 0
-60 -127 0
-61 -127 0
-62 -127 0
-63 -127 0
-64 -127 0
-65 -127 0
-66 -127 0
-67 -127 0
-68 -127 0
-69 -127 0
-60 -128 0
-61 -128 0
-62 -128 0
-63 -128 0
-64 -128 0
-65 -128 0
-66 -128 0
-67 -128 0
-68 -128 0
-69 -128 0
-61 -129 0
-62 -129 0
-63 -129 0
-64 -129 0
-65 -129 0
-66 -129 0
-67 -129 0
-68 -129 0
-69 -129 0
-62 -130 0
-63 -130 0
-64 -130 0
-65 -130 0
-66 -130 0
-67 -130 0
-68 -130 0
-69 -130 0
-63 -131 0
-64 -131 0
-65 -131 0
-66 -131 0
-67 -131 0
-68 -131 0
-69 -131 0
-64 -132 0
-65 -132 0
-66 -132 0
-67 -132 0
-68 -132 0
-69 -132 0
-65 -133 0
-66 -133 0
-67 -133 0
-68 -133 0
-69 -133 0
-66 -134 0
-67 -134 0
-68 -134 0
-69 -134 0
-67 -135 0
-68 -135 0
-69 -135 0
-68 -136 0
-69 -136 0
-69 -137 0
-71 -93 0
-72 -93 0
-73 -93 0
-74 -93 0
-75 -93 0
-76 -93 0
-77 -93 0
-78 -93 0
-79 -93 0
-80 -93 0
-81 -93 0
-82 -93 0
-83 -93 0
-84 -93 0
-85 -93 0
-86 -93 0
-87 -93 0
-88 -93 0
-89 -93 0
-90 -93 0
-91 -93 0
-92 -93 0
-72 -94 0
-73 -94 0
-74 -94 0
-75 -94 0
-76 -94 0
-77 -94 0
-78 -94 0
-79 -94 0
-80 -94 0
-81 -94 0
-82 -94 0
-83 -94 0
-84 -94 0
-85 -94 0
-86 -94 0
-87 -94 0
-88 -94 0
-89 -94 0
-90 -94 0
-91 -94 0
-92 -94 0
-73 -95 0
-74 -95 0
-75 -95 0
-76 -95 0
-77 -95 0
-78 -95 0
-79 -95 0
-80 -95 0
-81 -95 0
-82 -95 0
-83 -95 0
-84 -95 0
-85 -95 0
-86 -95 0
-87 -95 0
-88 -95 0
-89 -95 0
-90 -95 0
-91 -95 0
-92 -95 0
-74 -96 0
-75 -96 0
-76 -96 0
-77 -96 0
-78 -96 0
-79 -96 0
-80 -96 0
-81 -96 0
-82 -96 0
-83 -96 0
-84 -96 0
-85 -96 0
-86 -96 0
-87 -96 0
-88 -96 0
-89 -96 0
-90 -96 0
-91 -96 0
-92 -96 0
-75 -97 0
-76 -97 0
-77 -97 0
-78 -97 0
-79 -97 0
-80 -97 0
-81 -97 0
-82 -97 0
-83 -97 0
-84 -97 0
-85 -97 0
-86 -97 0
-87 -97 0
-88 -97 0
-89 -97 0
-90 -97 0
-91 -97 0
-92 -97 0
-76 -98 0
-77 -98 0
-78 -98 0
-79 -98 0
-80 -98 0
-81 -98 0
-82 -98 0
-83 -98 0
-84 -98 0
-85 -98 0
-86 -98 0
-87 -98 0
-88 -98 0
-89 -98 0
-90 -98 0
-91 -98 0
-92 -98 0
-77 -99 0
-78 -99 0
-79 -99 0
-80 -99 0
-81 -99 0
-82 -99 0
-83 -99 0
-84 -99 0
-85 -99 0
-86 -99 0
-87 -99 0
-88 -99 0
-89 -99 0
-90 -99 0
-91 -99 0
-92 -99 0
-78 -100 0
-79 -100 0
-80 -100 0
-81 -100 0
-82 -100 0
-83 -100 0
-84 -100 0
-85 -100 0
-86 -100 0
-87 -100 0
-88 -100 0
-89 -100 0
-90 -100 0
-91 -100 0
-92 -100 0
-79 -101 0
-80 -101 0
-81 -101 0
-82 -101 0
-83 -101 0
-84 -101 0
-85 -101 0
-86 -101 0
-87 -101 0
-88 -101 0
-89 -101 0
-90 -101 0
-91 -101 0
-92 -101 0
-80 -102 0
-81 -102 0
-82 -102 0
-83 -102 0
-84 -102 0
-85 -102 0
-86 -102 0
-87 -102 0
-88 -102 0
-89 -102 0
-90 -102 0
-91 -102 0
-92 -102 0
-81 -103 0
-82 -103 0
-83 -103 0
-84 -103 0
-85 -103 0
-86 -103 0
-87 -103 0
-88 -103 0
-89 -103 0
-90 -103 0
-91 -103 0
-92 -103 0
-82 -104 0
-83 -104 0
-84 -104 0
-85 -104 0
-86 -104 0
-87 -104 0
-88 -104 0
-89 -104 0
-90 -104 0
-91 -104 0
-92 -104 0
-83 -105 0
-84 -105 0
-85 -105 0
-86 -105 0
-87 -105 0
-88 -105 0
-89 -105 0
-90 -105 0
-91 -105 0
-92 -105 0
-84 -106 0
-85 -106 0
-86 -106 0
-87 -106 0
-88 -106 0
-89 -106 0
-90 -106 0
-91 -106 0
-92 -106 0
-85 -107 0
-86 -107 0
-87 -107 0
-88 -107 0
-89 -107 0
-90 -107 0
-91 -107 0
-92 -107 0
-86 -108 0
-87 -108 0
-88 -108 0
-89 -108 0
-90 -108 0
-91 -108 0
-92 -108 0
-87 -109 0
-88 -109 0
-89 -109 0
-90 -109 0
-91 -109 0
-92 -109 0
-88 -110 0
-89 -110 0
-90 -110 0
-91 -110 0
-92 -110 0
-89 -111 0
-90 -111 0
-91 -111 0
-92 -111 0
-90 -112 0
-91 -112 0
-92 -112 0
-91 -113 0
-92 -113 0
-92 -114 0
-71 -116 0
-72 -116 0
-73 -116 0
-74 -116 0
-75 -116 0
-76 -116 0
-77 -116 0
-78 -116 0
-79 -116 0
-80 -116 0
-81 -116 0
-82 -116 0
-83 -116 0
-84 -116 0
-85 -116 0
-86 -116 0
-87 -116 0
-88 -116 0
-89 -116 0
-90 -116 0
-91 -116 0
-92 -116 0
-72 -117 0
-73 -117 0
-74 -117 0
-75 -117 0
-76 -117 0
-77 -117 0
-78 -117 0
-79 -117 0
-80 -117 0
-81 -117 0
-82 -117 0
-83 -117 0
-84 -117 0
-85 -117 0
-86 -117 0
-87 -117 0
-88 -117 0
-89 -117 0
-90 -117 0
-91 -117 0
-92 -117 0
-73 -118 0
-74 -118 0
-75 -118 0
-76 -118 0
-77 -118 0
-78 -118 0
-79 -118 0
-80 -118 0
-81 -118 0
-82 -118 0
-83 -118 0
-84 -118 0
-85 -118 0
-86 -118 0
-87 -118 0
-88 -118 0
-89 -118 0
-90 -118 0
-91 -118 0
-92 -118 0
-74 -119 0
-75 -119 0
-76 -119 0
-77 -119 0
-78 -119 0
-79 -119 0
-80 -119 0
-81 -119 0
-82 -119 0
-83 -119 0
-84 -119 0
-85 -119 0
-86 -119 0
-87 -119 0
-88 -119 0
-89 -119 0
-90 -119 0
-91 -119 0
-92 -119 0
-75 -120 0
-76 -120 0
-77 -120 0
-78 -120 0
-79 -120 0
-80 -120 0
-81 -120 0
-82 -120 0
-83 -120 0
-84 -120 0
-85 -120 0
-86 -120 0
-87 -120 0
-88 -120 0
-89 -120 0
-90 -120 0
-91 -120 0
-92 -120 0
-76 -121 0
-77 -121 0
-78 -121 0
-79 -121 0
-80 -121 0
-81 -121 0
-82 -121 0
-83 -121 0
-84 -121 0
-85 -121 0
-86 -121 0
-87 -121 0
-88 -121 0
-89 -121 0
-90 -121 0
-91 -121 0
-92 -121 0
-77 -122 0
-78 -122 0
-79 -122 0
-80 -122 0
-81 -122 0
-82 -122 0
-83 -122 0
-84 -122 0
-85 -122 0
-86 -122 0
-87 -122 0
-88 -122 0
-89 -122 0
-90 -122 0
-91 -122 0
-92 -122 0
-78 -123 0
-79 -123 0
-80 -123 0
-81 -123 0
-82 -123 0
-83 -123 0
-84 -123 0
-85 -123 0
-86 -123 0
-87 -123 0
-88 -123 0
-89 -123 0
-90 -123 0
-91 -123 0
-92 -123 0
-79 -124 0
-80 -124 0
-81 -124 0
-82 -124 0
-83 -124 0
-84 -124 0
-85 -124 0
-86 -124 0
-87 -124 0
-88 -124 0
-89 -124 0
-90 -124 0
-91 -124 0
-92 -124 0
-80 -125 0
-81 -125 0
-82 -125 0
-83 -125 0
-84 -125 0
-85 -125 0
-86 -125 0
-87 -125 0
-88 -125 0
-89 -125 0
-90 -125 0
-91 -125 0
-92 -125 0
-81 -126 0
-82 -126 0
-83 -126 0
-84 -126 0
-85 -126 0
-86 -126 0
-87 -126 0
-88 -126 0
-89 -126 0
-90 -126 0
-91 -126 0
-92 -126 0
-82 -127 0
-83 -127 0
-84 -127 0
-85 -127 0
-86 -127 0
-87 -127 0
-88 -127 0
-89 -127 0
-90 -127 0
-91 -127 0
-92 -127 0
-83 -128 0
-84 -128 0
-85 -128 0
-86 -128 0
-87 -128 0
-88 -128 0
-89 -128 0
-90 -128 0
-91 -128 0
-92 -128 0
-84 -129 0
-85 -129 0
-86 -129 0
-87 -129 0
-88 -129 0
-89 -129 0
-90 -129 0
-91 -129 0
-92 -129 0
-85 -130 0
-86 -130 0
-87 -130 0
-88 -130 0
-89 -130 0
-90 -130 0
-91 -130 0
-92 -130 0
-86 -131 0
-87 -131 0
-88 -131 0
-89 -131 0
-90 -131 0
-91 -131 0
-92 -131 0
-87 -132 0
-88 -132 0
-89 -132 0
-90 -132 0
-91 -132 0
-92 -132 0
-88 -133 0
-89 -133 0
-90 -133 0
-91 -133 0
-92 -133 0
-89 -134 0
-90 -134 0
-91 -134 0
-92 -134 0
-90 -135 0
-91 -135 0
-92 -135 0
-91 -136 0
-92 -136 0
-92 -137 0
-94 -116 0
-95 -116 0
-96 -116 0
-97 -116 0
-98 -116 0
-99 -116 0
-100 -116 0
-101 -116 0
-102 -116 0
-103 -116 0
-104 -116 0
-105 -116 0
-106 -116 0
-107 -116 0
-108 -116 0
-109 -116 0
-110 -116 0
-111 -116 0
-112 -116 0
-113 -116 0
-114 -116 0
-115 -116 0
-95 -117 0
-96 -117 0
-97 -117 0
-98 -117 0
-99 -117 0
-100 -117 0
-101 -117 0
-102 -117 0
-103 -117 0
-104 -117 0
-105 -117 0
-106 -117 0
-107 -117 0
-108 -117 0
-109 -117 0
-110 -117 0
-111 -117 0
-112 -117 0
-113 -117 0
-114 -117 0
-115 -117 0
-96 -118 0
-97 -118 0
-98 -118 0
-99 -118 0
-100 -118 0
-101 -118 0
-102 -118 0
-103 -118 0
-104 -118 0
-105 -118 0
-106 -118 0
-107 -118 0
-108 -118 0
-109 -118 0
-110 -118 0
-111 -118 0
-112 -118 0
-113 -118 0
-114 -118 0
-115 -118 0
-97 -119 0
-98 -119 0
-99 -119 0
-100 -119 0
-101 -119 0
-102 -119 0
-103 -119 0
-104 -119 0
-105 -119 0
-106 -119 0
-107 -119 0
-108 -119 0
-109 -119 0
-110 -119 0
-111 -119 0
-112 -119 0
-113 -119 0
-114 -119 0
-115 -119 0
-98 -120 0
-99 -120 0
-100 -120 0
-101 -120 0
-102 -120 0
-103 -120 0
-104 -120 0
-105 -120 0
-106 -120 0
-107 -120 0
-108 -120 0
-109 -120 0
-110 -120 0
-111 -120 0
-112 -120 0
-113 -120 0
-114 -120 0
-115 -120 0
-99 -121 0
-100 -121 0
-101 -121 0
-102 -121 0
-103 -121 0
-104 -121 0
-105 -121 0
-106 -121 0
-107 -121 0
-108 -121 0
-109 -121 0
-110 -121 0
-111 -121 0
-112 -121 0
-113 -121 0
-114 -121 0
-115 -121 0
-100 -122 0
-101 -122 0
-102 -122 0
-103 -122 0
-104 -122 0
-105 -122 0
-106 -122 0
-107 -122 0
-108 -122 0
-109 -122 0
-110 -122 0
-111 -122 0
-112 -122 0
-113 -122 0
-114 -122 0
-115 -122 0
-101 -123 0
-102 -123 0
-103 -123 0
-104 -123 0
-105 -123 0
-106 -123 0
-107 -123 0
-108 -123 0
-109 -123 0
-110 -123 0
-111 -123 0
-112 -123 0
-113 -123 0
-114 -123 0
-115 -123 0
-102 -124 0
-103 -124 0
-104 -124 0
-105 -124 0
-106 -124 0
-107 -124 0
-108 -124 0
-109 -124 0
-110 -124 0
-111 -124 0
-112 -124 0
-113 -124 0
-114 -124 0
-115 -124 0
-103 -125 0
-104 -125 0
-105 -125 0
-106 -125 0
-107 -125 0
-108 -125 0
-109 -125 0
-110 -125 0
-111 -125 0
-112 -125 0
-113 -125 0
-114 -125 0
-115 -125 0
-104 -126 0
-105 -126 0
-106 -126 0
-107 -126 0
-108 -126 0
-109 -126 0
-110 -126 0
-111 -126 0
-112 -126 0
-113 -126 0
-114 -126 0
-115 -126 0
-105 -127 0
-106 -127 0
-107 -127 0
-108 -127 0
-109 -127 0
-110 -127 0
-111 -127 0
-112 -127 0
-113 -127 0
-114 -127 0
-115 -127 0
-106 -128 0
-107 -128 0
-108 -128 0
-109 -128 0
-110 -128 0
-111 -128 0
-112 -128 0
-113 -128 0
-114 -128 0
-115 -128 0
-107 -129 0
-108 -129 0
-109 -129 0
-110 -129 0
-111 -129 0
-112 -129 0
-113 -129 0
-114 -129 0
-115 -129 0
-108 -130 0
-109 -130 0
-110 -130 0
-111 -130 0
-112 -130 0
-113 -130 0
-114 -130 0
-115 -130 0
-109 -131 0
-110 -131 0
-111 -131 0
-112 -131 0
-113 -131 0
-114 -131 0
-115 -131 0
-110 -132 0
-111 -132 0
-112 -132 0
-113 -132 0
-114 -132 0
-115 -132 0
-111 -133 0
-112 -133 0
-113 -133 0
-114 -133 0
-115 -133 0
-112 -134 0
-113 -134 0
-114 -134 0
-115 -134 0
-113 -135 0
-114 -135 0
-115 -135 0
-114 -136 0
-115 -136 0
-115 -137 0
-24 1 0
-25 2 0
-26 3 0
-27 4 0
-28 5 0
-29 6 0
-30 7 0
-31 8 0
-32 9 0
-33 10 0
-34 11 0
-35 12 0
-36 13 0
-37 14 0
-38 15 0
-39 16 0
-40 17 0
-41 18 0
-42 19 0
-43 20 0
-44 21 0
-45 22 0
-46 23 0
-47 1 0
-48 2 0
-49 3 0
-50 4 0
-51 5 0
-52 6 0
-53 7 0
-54 8 0
-55 9 0
-56 10 0
-57 11 0
-58 12 0
-59 13 0
-60 14 0
-61 15 0
-62 16 0
-63 17 0
-64 18 0
-65 19 0
-66 20 0
-67 21 0
-68 22 0
-69 23 0
-70 1 0
-71 2 0
-72 3 0
-73 4 0
-74 5 0
-75 6 0
-76 7 0
-77 8 0
-78 9 0
-79 10 0
-80 11 0
-81 12 0
-82 13 0
-83 14 0
-84 15 0
-85 16 0
-86 17 0
-87 18 0
-88 19 0
-89 20 0
-90 21 0
-91 22 0
-92 23 0
-93 1 0
-94 2 0
-95 3 0
-96 4 0
-97 5 0
-98 6 0
-99 7 0
-100 8 0
-101 9 0
-102 10 0
-103 11 0
-104 12 0
-105 13 0
-106 14 0
-107 15 0
-108 16 0
-109 17 0
-110 18 0
-111 19 0
-112 20 0
-113 21 0
-114 22 0
-115 23 0
-116 1 0
-117 2 0
-118 3 0
-119 4 0
-120 5 0
-121 6 0
-122 7 0
-123 8 0
-124 9 0
-125 10 0
-126 11 0
-127 12 0
-128 13 0
-129 14 0
-130 15 0
-131 16 0
-132 17 0
-133 18 0
-134 19 0
-135 20 0
-136 21 0
-137 22 0
-138 23 0
-1 24 47 70 93 116 0
-2 25 48 71 94 117 0
-3 26 49 72 95 118 0
-4 27 50 73 96 119 0
-5 28 51 74 97 120 0
-6 29 52 75 98 121 0
-7 30 53 76 99 122 0
-8 31 54 77 100 123 0
-9 32 55 78 101 124 0
-10 33 56 79 102 125 0
-11 34 57 80 103 126 0
-12 35 58 81 104 127 0
-13 36 59 82 105 128 0
-14 37 60 83 106 129 0
-15 38 61 84 107 130 0
-16 39 62 85 108 131 0
-17 40 63 86 109 132 0
-18 41 64 87 110 133 0
-19 42 65 88 111 134 0
-20 43 66 89 112 135 0
-21 44 67 90 113 136 0
-22 45 68 91 114 137 0
-23 46 69 92 115 138 0
1 2 4 11 16 20 0
1 2 11 12 13 19 20 21 0
1 2 11 14 0
1 4 7 9 15 18 19 20 23 0
1 5 10 11 13 15 19 20 0
1 6 8 13 14 20 21 0
1 6 13 17 21 0
1 7 12 18 0
2 4 13 14 15 23 0
3 4 5 11 14 16 17 18 19 0
3 4 8 10 17 0
3 4 10 17 21 0
3 7 8 10 17 20 0
3 8 9 10 13 0
4 5 20 0
4 9 11 15 16 0
4 12 18 19 0
6 7 9 10 12 19 0
6 7 13 21 22 0
6 22 0
7 8 9 16 19 0
14 15 16 19 20 0
14 19 23 0
