p cnf 289 1231
-71 92 148 0
-69 152 213 0
115 116 -239 0
-17 -30 -109 0
103 207 214 0
-64 101 -263 0
7 105 196 0
30 -79 240 0
-139 169 176 0
-61 232 -254 0
-115 -193 272 0
58 137 -279 0
92 100 199 0
9 43 -177 0
15 41 -123 0
82 -99 -122 0
-53 -54 172 0
-17 -33 174 0
9 -68 176 0
132 -190 191 0
92 172 -285 0
-82 -160 -175 0
8 133 203 0
60 -101 225 0
22 26 160 0
-36 -121 169 0
167 277 285 0
-102 -153 -265 0
-114 -172 234 0
46 95 169 0
-4 201 220 0
-234 259 -260 0
-58 -186 231 0
-63 -65 66 0
-61 191 -279 0
-28 -148 212 0
-12 107 113 0
31 79 -206 0
33 264 -280 0
-56 64 -166 0
52 128 221 0
-1 -4 -284 0
13 50 -227 0
-133 222 234 0
-1 -103 -222 0
-149 -154 235 0
-9 -44 105 0
17 -77 -94 0
4 170 233 0
3 81 -112 0
13 32 60 0
29 -122 -263 0
65 168 -189 0
-107 130 265 0
-1 187 -258 0
-31 49 -129 0
97 -220 -287 0
-84 -216 -241 0
-176 187 -224 0
-40 185 -283 0
-2 38 245 0
-134 248 272 0
16 -77 -280 0
99 -103 202 0
-36 84 -169 0
-106 244 -276 0
-93 -99 -166 0
77 123 -273 0
-47 176 200 0
-2 207 -224 0
-47 176 278 0
43 67 -217 0
32 -201 269 0
59 87 184 0
-151 -270 -276 0
128 195 -258 0
59 -119 181 0
74 87 183 0
203 -226 -252 0
-75 108 247 0
-9 -225 -261 0
9 -59 71 0
-119 131 -164 0
4 -103 194 0
-64 78 -115 0
-35 -134 -136 0
35 -160 -191 0
55 144 175 0
114 153 257 0
91 -112 113 0
152 164 -203 0
-62 -204 278 0
-35 61 76 0
7 -169 -185 0
8 -34 179 0
57 -158 -195 0
4 5 53 0
-50 -131 -143 0
-75 -207 -263 0
-91 147 -155 0
46 126 251 0
-114 -196 -225 0
-191 -230 245 0
-105 -124 206 0
-100 132 -194 0
-131 151 215 0
-11 260 272 0
-20 -160 -266 0
-84 -87 262 0
89 159 -174 0
197 -242 286 0
-78 -224 -285 0
-38 47 97 0
-38 74 -174 0
-18 -23 160 0
149 242 272 0
13 -158 -226 0
69 82 -171 0
-203 219 259 0
7 -87 -242 0
181 -236 267 0
-192 205 248 0
216 -240 278 0
45 49 -58 0
98 166 -243 0
12 48 -68 0
-100 -103 -273 0
-41 -151 -223 0
-79 -147 269 0
-42 -144 281 0
113 183 236 0
80 135 268 0
54 -59 -194 0
3 88 -110 0
22 227 -241 0
-145 235 288 0
9 -54 233 0
90 219 243 0
29 94 -163 0
-64 102 -206 0
56 -178 187 0
-7 -179 -237 0
116 -126 178 0
-50 -163 186 0
-147 204 251 0
-71 90 -198 0
190 -209 216 0
-142 268 -284 0
-14 -166 -179 0
26 220 -273 0
-10 142 277 0
1 -58 -90 0
3 -76 250 0
139 -150 168 0
-88 111 -199 0
-102 129 237 0
17 -54 212 0
-161 -183 -248 0
46 -117 -242 0
-59 87 -225 0
-42 117 222 0
60 267 289 0
-59 125 212 0
-18 131 -286 0
79 285 286 0
-33 264 281 0
86 124 -221 0
40 -104 238 0
-63 166 232 0
5 81 129 0
-38 219 268 0
-106 -184 -260 0
-94 103 -250 0
180 199 -251 0
-50 136 -197 0
7 -50 -58 0
-70 -137 266 0
94 170 -231 0
-22 33 -232 0
74 -215 236 0
19 102 158 0
-64 -82 277 0
-16 126 -280 0
15 -198 221 0
-34 240 -288 0
26 -170 -225 0
64 89 249 0
-46 142 -163 0
-29 -104 -201 0
-26 -85 -106 0
92 -157 -275 0
-51 -98 -188 0
151 180 -183 0
71 -113 157 0
98 -149 275 0
-149 -235 -260 0
-52 61 -278 0
-168 182 -258 0
191 -193 -278 0
-28 -56 -234 0
-38 52 121 0
-84 -88 254 0
-142 -148 -201 0
95 174 -259 0
178 205 -251 0
-121 -130 172 0
-93 -146 -273 0
30 182 210 0
19 -22 106 0
-9 -58 -207 0
-131 -195 -225 0
29 -181 224 0
22 -116 -138 0
-35 74 258 0
173 217 219 0
-33 -44 -170 0
-31 198 -284 0
-222 -228 -269 0
2 -20 276 0
-53 105 -268 0
-45 -58 242 0
-112 242 267 0
113 125 180 0
-54 -126 180 0
-77 -81 134 0
104 -193 285 0
39 138 -180 0
-133 220 -232 0
-7 178 -201 0
-64 150 267 0
-234 -237 268 0
22 26 -119 0
-22 -83 -252 0
102 -166 169 0
-61 132 165 0
9 -186 239 0
102 128 187 0
182 -221 -233 0
-40 64 142 0
2 24 -44 0
43 264 -266 0
-158 185 215 0
228 -263 270 0
-13 27 205 0
-70 255 268 0
26 34 229 0
-36 -191 201 0
-198 -210 -233 0
-8 -78 -236 0
7 112 235 0
11 -108 111 0
108 166 -241 0
64 -155 -228 0
29 -170 230 0
142 -169 198 0
83 136 -172 0
-50 -212 236 0
-46 -92 -153 0
58 -187 -205 0
16 -122 200 0
130 167 183 0
-41 170 -251 0
-143 -203 -269 0
-21 132 -142 0
-18 -87 198 0
4 -70 247 0
42 -209 -257 0
133 164 217 0
58 -81 -112 0
-156 -209 -228 0
31 100 268 0
126 164 190 0
20 -127 -238 0
-28 -177 -200 0
16 -161 287 0
-72 130 226 0
35 -200 -275 0
-131 258 -264 0
68 -207 252 0
-138 -175 -202 0
174 235 260 0
58 -147 -230 0
225 -254 -262 0
76 173 267 0
-21 145 -211 0
101 -158 -243 0
-6 87 189 0
11 121 283 0
-91 -160 256 0
248 254 270 0
-8 -193 259 0
77 -234 -279 0
-8 124 125 0
-8 26 74 0
13 -36 -182 0
-98 -221 -226 0
-39 173 206 0
54 213 283 0
119 126 208 0
145 183 260 0
35 62 -169 0
51 -110 -130 0
-31 -147 278 0
-48 55 205 0
-117 160 171 0
204 -216 -278 0
-29 -108 -157 0
-12 92 -212 0
-56 -107 170 0
-2 -166 196 0
38 218 -244 0
-11 -56 -91 0
103 186 -249 0
-56 -95 -282 0
-64 87 232 0
101 -121 -125 0
48 -104 115 0
25 208 -228 0
-33 81 243 0
-6 17 82 0
-37 -134 -261 0
-37 -225 277 0
176 180 227 0
-97 127 -191 0
-82 226 -277 0
-136 151 -178 0
119 -161 -229 0
-34 40 219 0
38 -59 -109 0
-44 -210 -255 0
68 -181 -235 0
37 102 -249 0
32 -62 -257 0
71 -233 267 0
-5 108 184 0
-77 -131 168 0
-196 -266 275 0
-134 169 193 0
-84 -108 222 0
-145 -185 -284 0
-118 -220 -224 0
-3 -229 -270 0
203 243 249 0
43 -86 274 0
140 147 163 0
-44 -128 278 0
-46 141 -186 0
-83 221 -250 0
-3 88 118 0
-222 227 -284 0
-152 -246 -276 0
-76 -166 220 0
-23 -192 210 0
99 119 213 0
-3 -147 -264 0
-119 -132 219 0
188 207 265 0
10 21 247 0
-36 -175 190 0
-81 107 -265 0
-48 126 249 0
-36 156 280 0
119 168 -256 0
38 -181 254 0
97 198 -289 0
-111 -227 -234 0
68 -71 -137 0
54 -241 245 0
127 -210 266 0
-69 95 196 0
11 -51 -122 0
70 135 238 0
13 47 -153 0
-85 -110 -267 0
165 -212 -244 0
-112 -138 -268 0
213 215 -275 0
18 108 185 0
-44 -63 90 0
101 -185 -286 0
-41 -116 -178 0
74 -103 155 0
-63 85 -127 0
31 -69 256 0
-98 128 153 0
-148 -191 230 0
-111 237 -252 0
27 41 -161 0
120 -211 -226 0
114 197 210 0
-113 136 -200 0
33 -54 -183 0
27 -236 -263 0
-191 205 218 0
-129 184 -212 0
18 -229 -288 0
-11 21 103 0
-37 -165 -242 0
21 -144 256 0
-77 101 122 0
-71 -152 176 0
77 157 179 0
192 248 267 0
-77 -168 247 0
-78 -111 -235 0
-47 -121 240 0
-4 158 -191 0
50 215 236 0
150 -217 248 0
79 131 -145 0
56 -112 -234 0
14 -133 -279 0
-70 180 259 0
135 207 -276 0
196 204 234 0
-68 -187 -216 0
146 -262 267 0
2 -119 -199 0
35 46 113 0
28 51 -184 0
-40 106 -196 0
56 174 -245 0
70 -102 121 0
-70 188 -191 0
-179 202 254 0
-103 186 -230 0
13 -190 281 0
28 -92 215 0
-7 9 -84 0
22 103 -123 0
62 205 211 0
-79 200 -245 0
63 107 -177 0
146 197 -208 0
2 -175 240 0
48 123 124 0
-111 154 235 0
125 -128 157 0
-156 164 -205 0
60 229 -283 0
-86 227 -236 0
-50 -138 282 0
-133 279 280 0
60 125 -198 0
-65 121 155 0
11 24 -71 0
31 -37 80 0
68 229 271 0
-20 149 -195 0
50 79 -220 0
-29 53 -57 0
42 -102 -277 0
-103 141 -210 0
-34 92 -243 0
51 117 -262 0
-78 105 -171 0
-9 -84 223 0
9 122 260 0
-77 -118 119 0
33 -164 -177 0
77 -131 -251 0
101 -153 -202 0
-35 -265 -275 0
36 -126 -275 0
69 -195 -283 0
-42 -47 72 0
48 -244 -252 0
75 -158 246 0
-68 -205 223 0
27 42 245 0
-4 -6 -94 0
33 105 125 0
97 -132 287 0
67 -100 -223 0
125 160 -247 0
-77 -166 -176 0
-19 78 196 0
90 198 -287 0
38 -61 -67 0
80 -93 -217 0
26 -161 -255 0
-118 150 -210 0
87 -91 223 0
5 272 -286 0
4 -6 217 0
36 56 -190 0
-70 -158 -200 0
-71 126 146 0
16 40 233 0
-71 -100 262 0
2 -38 224 0
-48 -157 -270 0
-86 92 -167 0
60 -123 173 0
60 -155 -237 0
-12 -102 -277 0
57 155 159 0
24 96 135 0
-90 -127 217 0
44 111 -161 0
71 -79 285 0
-28 -197 230 0
7 104 197 0
18 -189 -260 0
10 -40 -75 0
-74 -87 -124 0
128 -228 246 0
-135 200 259 0
-14 190 -215 0
17 231 -232 0
-72 201 205 0
-65 -83 115 0
-24 -114 -226 0
-86 -92 -288 0
-113 193 194 0
94 -229 270 0
-40 -49 -92 0
57 106 -216 0
-58 -107 -214 0
5 27 -66 0
-46 124 -222 0
-24 -105 256 0
108 163 -263 0
165 -223 -255 0
-59 -135 -258 0
16 -118 254 0
10 -129 267 0
164 -258 289 0
-63 -220 -267 0
6 -29 56 0
-72 74 -82 0
-26 88 -141 0
117 -123 -186 0
51 112 165 0
28 -83 196 0
2 -42 -112 0
-227 -275 286 0
122 162 -236 0
-31 -156 170 0
50 113 -192 0
96 215 -279 0
-83 157 -178 0
1 -70 -108 0
-64 -101 180 0
102 -236 -272 0
120 200 -225 0
-32 -92 -104 0
148 -236 274 0
-237 266 -280 0
93 118 -127 0
143 -147 222 0
-21 -33 -59 0
-81 102 265 0
23 26 -215 0
-146 147 -226 0
-194 -204 -272 0
97 183 -232 0
-65 73 -144 0
187 -210 225 0
9 153 239 0
7 -8 138 0
101 -102 -110 0
-109 -150 224 0
48 -140 -177 0
-102 119 249 0
29 -229 -269 0
1 99 -194 0
-40 -190 217 0
-111 195 227 0
14 163 277 0
35 -96 225 0
-73 -114 184 0
-33 91 -192 0
-103 -138 -176 0
-62 65 165 0
100 124 -228 0
-97 -116 -257 0
-73 -161 172 0
34 54 167 0
96 -159 -168 0
48 -134 -231 0
35 62 66 0
-125 212 268 0
-4 105 269 0
32 -60 135 0
-88 98 -133 0
29 264 -281 0
62 -84 -191 0
-118 134 -241 0
-182 192 263 0
-28 88 -263 0
-47 -53 -164 0
45 222 -223 0
63 124 -155 0
-19 -199 -269 0
8 -36 -258 0
-84 -158 278 0
-14 42 -156 0
-72 -91 225 0
-36 -139 -184 0
-82 -198 201 0
-171 188 227 0
3 -52 233 0
-46 140 -260 0
-11 119 -175 0
86 -142 -255 0
210 -212 -235 0
-102 -105 116 0
-186 198 -213 0
202 -224 -285 0
-8 -198 283 0
-69 -93 -247 0
19 147 -266 0
54 -111 -248 0
1 -248 256 0
216 -225 232 0
-126 -181 -243 0
-14 -22 58 0
35 -132 151 0
-11 -46 226 0
187 -203 270 0
187 -238 281 0
-28 160 261 0
-184 246 254 0
-87 -158 -233 0
173 -233 257 0
7 -45 -85 0
1 -56 126 0
-68 151 217 0
-43 -138 -160 0
-26 228 234 0
38 -113 171 0
-13 58 -101 0
78 -238 274 0
-166 187 -242 0
117 214 -219 0
98 109 -276 0
-38 -130 182 0
-105 214 -269 0
-27 65 275 0
5 205 -266 0
-36 44 -143 0
118 -146 255 0
-32 -176 -212 0
-68 138 289 0
-4 100 274 0
-79 145 264 0
-88 -138 -256 0
-91 113 280 0
-14 46 226 0
-76 181 261 0
175 -220 -253 0
-57 -96 125 0
-100 175 -285 0
1 -16 -43 0
-31 80 -280 0
-109 -119 -178 0
14 215 270 0
-3 216 -255 0
80 -89 241 0
40 151 -173 0
59 119 154 0
22 -255 257 0
-205 -209 -263 0
-89 -107 -254 0
36 43 108 0
-175 -178 268 0
-61 86 177 0
-17 25 43 0
-24 44 -155 0
-78 204 -275 0
-170 -180 -272 0
41 -136 -141 0
125 249 269 0
-33 102 -160 0
146 -148 -222 0
-77 107 -113 0
-38 211 234 0
84 156 -283 0
18 -165 -232 0
104 -111 -232 0
-27 -101 230 0
-113 193 206 0
146 220 257 0
-3 -95 -144 0
-117 189 238 0
11 208 258 0
98 -176 -279 0
153 -218 235 0
-170 -225 -255 0
-75 233 -274 0
49 106 117 0
142 144 -149 0
-56 -90 -280 0
-71 238 -271 0
-88 -191 -266 0
170 242 284 0
17 -237 -253 0
-212 -226 228 0
-47 143 -202 0
1 -4 201 0
127 151 -186 0
97 -168 207 0
-34 75 115 0
8 81 -205 0
51 -70 256 0
-19 -95 266 0
19 -22 141 0
38 -130 145 0
27 238 -268 0
104 115 172 0
-32 137 252 0
-179 -255 258 0
-89 199 264 0
143 -194 249 0
-50 -181 -272 0
-4 28 -131 0
3 12 -289 0
-57 212 -251 0
26 -45 177 0
-67 -162 273 0
-33 86 -160 0
108 -166 -205 0
24 -66 223 0
24 108 -133 0
-178 -228 -244 0
-128 183 -205 0
82 -211 237 0
64 -72 -123 0
-81 -240 -250 0
-99 196 -206 0
-46 -121 -247 0
-189 -281 287 0
-142 212 -261 0
-75 194 -274 0
-13 180 259 0
6 55 -137 0
-147 249 -289 0
96 135 -264 0
-47 225 240 0
32 83 129 0
-106 215 277 0
58 -77 269 0
48 211 -245 0
-76 116 -178 0
-63 -130 -219 0
-52 -88 -169 0
-14 -102 -274 0
55 -119 -219 0
-35 -154 273 0
24 -192 229 0
37 48 -196 0
-15 66 -190 0
-26 121 170 0
-120 168 201 0
-83 157 -207 0
118 222 -256 0
-183 226 -238 0
6 -25 -97 0
127 214 -222 0
-126 -130 154 0
-16 -227 -274 0
-87 92 -181 0
-13 -108 -258 0
-37 -59 147 0
121 178 220 0
-47 -52 -245 0
-37 -166 229 0
65 -159 -258 0
1 -81 196 0
25 -35 -260 0
-93 229 252 0
-116 157 -211 0
-97 201 -258 0
7 -183 285 0
233 -246 247 0
-148 174 -239 0
-90 119 -219 0
5 -81 -147 0
83 -174 264 0
144 -188 282 0
-114 -241 -271 0
-77 102 -248 0
78 -205 263 0
66 120 -148 0
81 201 -231 0
-41 -52 -146 0
50 66 -157 0
11 95 120 0
159 -166 -167 0
160 -188 218 0
43 54 199 0
-89 -125 -204 0
2 -101 -152 0
97 186 286 0
-175 277 281 0
32 122 193 0
16 51 -223 0
113 -170 185 0
65 175 -278 0
26 -183 -189 0
-90 138 -204 0
-45 -220 -245 0
-53 -134 -240 0
7 -124 214 0
-9 -50 248 0
48 73 241 0
-82 -86 111 0
80 167 -191 0
67 -74 178 0
102 120 -163 0
-144 -155 -245 0
74 248 255 0
-35 -112 168 0
-4 -190 251 0
-30 -41 -267 0
-54 262 271 0
16 -158 -214 0
-33 -56 -113 0
143 -212 -254 0
91 -238 -281 0
71 96 183 0
-62 124 147 0
79 -149 209 0
33 101 -193 0
36 124 -231 0
-23 -56 82 0
-29 -31 216 0
120 -237 -238 0
110 -160 -222 0
-218 232 -242 0
86 -251 289 0
57 205 218 0
-16 -260 -276 0
-81 93 126 0
-37 -90 -113 0
-111 178 -248 0
-24 124 -284 0
-40 -214 215 0
25 -36 203 0
61 -99 178 0
137 -169 -271 0
-12 138 169 0
60 -108 257 0
84 -213 288 0
-24 -179 -189 0
-78 -89 -211 0
38 -51 -183 0
-17 -23 124 0
20 228 -288 0
127 187 276 0
94 169 222 0
105 -113 139 0
-79 -179 227 0
-9 -143 -144 0
38 256 -271 0
31 64 -163 0
-128 -227 269 0
-169 180 218 0
75 -144 184 0
-61 85 -97 0
-51 71 125 0
-18 -85 146 0
68 100 227 0
28 52 -220 0
-26 -184 -243 0
-94 99 -251 0
17 20 230 0
-64 -103 187 0
-76 132 -212 0
-86 -232 268 0
31 233 239 0
-17 -179 -269 0
9 -210 -236 0
35 -165 166 0
68 -80 151 0
53 -232 -250 0
-72 -141 -148 0
115 -215 271 0
-20 264 288 0
-53 -82 184 0
58 -196 -208 0
-168 -194 282 0
23 -46 -120 0
-7 33 86 0
99 -155 163 0
-30 109 -167 0
-16 -33 -214 0
-201 -241 -251 0
-45 134 175 0
21 -82 168 0
7 129 246 0
-163 -247 -265 0
-53 85 208 0
66 -90 106 0
-80 180 186 0
51 60 -106 0
-4 19 -250 0
120 151 -237 0
-6 -37 -85 0
43 -77 -262 0
106 177 -189 0
-52 -145 187 0
6 27 88 0
-69 213 -248 0
60 -149 175 0
27 -110 228 0
-123 -141 -275 0
146 -182 220 0
-184 199 211 0
-48 91 129 0
70 128 -241 0
-47 -50 78 0
-136 174 239 0
-106 160 233 0
102 -170 263 0
-103 -152 -266 0
-89 -102 115 0
-62 130 -169 0
2 126 -137 0
-65 75 -161 0
-32 -61 -88 0
23 -155 -193 0
35 -61 -176 0
68 -166 189 0
179 -192 267 0
5 -78 -209 0
23 -144 -167 0
-197 -204 -230 0
-176 203 -249 0
-112 -115 133 0
21 -175 -216 0
115 -130 -267 0
143 227 251 0
177 -254 -259 0
-156 -179 181 0
16 189 275 0
137 -210 274 0
4 -163 179 0
-107 -241 288 0
60 -141 263 0
43 -46 -54 0
-53 -117 142 0
103 162 -240 0
118 -255 268 0
-178 -229 243 0
-92 146 249 0
173 -176 -266 0
-112 164 267 0
183 208 -245 0
111 -190 -201 0
14 -49 -257 0
163 187 243 0
56 150 -197 0
2 -17 95 0
-43 110 216 0
51 62 159 0
58 -179 219 0
-17 -46 -97 0
8 188 277 0
-90 210 264 0
17 44 60 0
-149 232 -261 0
-82 -89 224 0
-3 -169 -210 0
-144 147 203 0
-60 -137 -208 0
-46 116 181 0
232 -238 -271 0
-73 -179 256 0
65 90 -149 0
123 141 208 0
-125 -166 223 0
-13 -111 212 0
53 175 -247 0
-55 283 -284 0
7 18 259 0
160 -199 -244 0
-3 162 -202 0
-7 50 -171 0
-92 121 -149 0
93 -143 162 0
-42 -126 184 0
-91 -113 -233 0
7 22 -109 0
63 158 -229 0
62 -121 222 0
41 113 287 0
-122 164 186 0
-59 106 -111 0
-47 -187 -286 0
-42 -157 169 0
5 67 -143 0
-19 124 283 0
76 -124 -240 0
-176 -245 -253 0
-60 -161 240 0
40 91 278 0
-99 163 194 0
103 -152 -251 0
-3 -36 271 0
-65 -99 229 0
-15 96 -120 0
-91 -103 196 0
-103 -237 -239 0
-90 156 -183 0
-53 -109 -205 0
-131 239 249 0
-14 -85 -274 0
28 -51 80 0
-33 116 193 0
-77 238 247 0
-60 -230 -241 0
-47 95 -222 0
-12 225 -226 0
-48 154 -206 0
80 116 -282 0
101 -102 258 0
-90 -169 263 0
-22 -27 -116 0
53 -245 -272 0
-136 -191 202 0
62 240 264 0
-26 -96 -110 0
101 122 -169 0
89 121 -221 0
-69 -176 258 0
50 -167 -199 0
-22 124 263 0
17 -162 -176 0
35 -41 183 0
-16 -152 -213 0
-235 -271 -280 0
173 -183 282 0
-73 121 -268 0
-55 -175 -208 0
68 -204 239 0
-19 185 -236 0
-71 170 -243 0
-37 -157 -261 0
38 129 -280 0
-68 -88 -142 0
45 163 251 0
-8 -36 150 0
142 149 262 0
77 -212 -258 0
17 174 284 0
-112 136 -240 0
183 214 -227 0
13 -17 161 0
145 -208 226 0
46 -93 250 0
68 156 -176 0
-55 69 -130 0
40 209 272 0
-49 218 220 0
-15 -163 -206 0
-59 -92 -115 0
-76 199 -254 0
-14 135 258 0
-31 -51 -109 0
-230 -265 269 0
139 241 -246 0
37 147 216 0
31 49 54 0
171 258 -265 0
-161 -167 -197 0
-13 -51 -259 0
82 -140 154 0
8 24 65 0
-47 202 263 0
159 204 217 0
42 45 -83 0
-50 168 -214 0
37 -63 232 0
-90 -182 287 0
108 235 -268 0
46 63 249 0
105 -224 -245 0
-31 35 181 0
-144 -168 239 0
39 -72 84 0
-23 -270 -274 0
86 -268 283 0
-47 -98 -226 0
59 193 -195 0
-91 137 -222 0
-7 193 269 0
79 -168 -182 0
-19 210 -214 0
122 -235 240 0
35 143 211 0
7 96 238 0
-55 185 -197 0
-83 92 -104 0
-3 -132 -146 0
9 97 242 0
14 -100 -123 0
-140 -146 -231 0
-37 -178 -224 0
-24 206 264 0
32 -122 195 0
-57 133 -220 0
-61 -91 -257 0
-40 -213 -286 0
1 10 -218 0
-47 48 -277 0
88 -138 -200 0
-128 -156 -211 0
-13 29 -229 0
46 -72 -231 0
2 -36 -122 0
-6 202 -287 0
-158 -173 210 0
40 134 -196 0
9 72 -117 0
5 -100 206 0
58 134 -168 0
-113 212 -282 0
50 81 143 0
133 157 179 0
161 -178 180 0
-52 59 -107 0
-72 -242 263 0
90 146 235 0
37 88 -155 0
1 -103 242 0
-29 -181 -238 0
-101 -169 -186 0
81 209 269 0
-11 -27 58 0
-44 132 -168 0
20 194 234 0
-230 249 264 0
10 130 -181 0
76 -194 -212 0
42 -97 -180 0
-68 90 -126 0
-93 101 -170 0
-47 132 175 0
-130 -225 242 0
-70 -116 -211 0
-65 150 261 0
-135 -226 -230 0
51 -116 -273 0
115 210 -273 0
-88 -152 216 0
-4 23 -32 0
87 -129 -261 0
-79 167 210 0
-154 202 240 0
-32 188 -205 0
4 -49 59 0
-39 -171 175 0
-13 83 129 0
151 -208 -261 0
-104 -233 271 0
-41 -52 -60 0
-202 -209 239 0
62 -139 -239 0
-12 81 -124 0
90 240 -286 0
25 216 -242 0
22 159 236 0
-11 -74 251 0
71 -248 -256 0
7 158 172 0
25 -120 -262 0
59 136 -285 0
80 -99 -277 0
-19 -104 -120 0
-25 -120 216 0
57 -150 -247 0
156 187 -251 0
-31 -186 244 0
-99 -126 -169 0
-20 -60 -258 0
140 241 242 0
7 129 -186 0
65 -121 -122 0
28 -187 -269 0
39 -159 276 0
43 50 -225 0
-56 80 114 0
-57 192 200 0
-50 176 244 0
29 -87 -100 0
-37 -120 -253 0
-15 106 198 0
-28 -100 -148 0
75 101 -112 0
-27 -184 243 0
81 185 262 0
11 -50 -137 0
-52 76 -145 0
-15 48 -153 0
49 50 73 0
-99 -105 -143 0
-231 -233 -261 0
10 63 224 0
39 63 158 0
-81 174 219 0
-51 78 221 0
-24 40 94 0
-66 -75 137 0
104 -127 -149 0
-145 -173 223 0
-128 182 201 0
33 -59 263 0
-58 -249 268 0
-135 155 168 0
28 -162 -183 0
-197 272 -289 0
-87 237 278 0
46 -169 170 0
31 -37 -116 0
23 -48 -106 0
89 142 173 0
17 -22 25 0
-63 146 -257 0
-41 78 -181 0
-167 236 -255 0
112 217 -225 0
-43 -56 -188 0
44 -195 247 0
-100 -183 209 0
132 -196 242 0
-37 -63 -76 0
29 -31 -216 0
161 171 225 0
-48 -152 -253 0
