p cnf 244 1040
-26 -99 218 0
-93 196 -219 0
81 126 204 0
-87 120 -217 0
32 -33 97 0
-12 -84 109 0
-171 192 212 0
-46 -113 205 0
136 167 213 0
-67 -84 176 0
2 59 114 0
60 -215 238 0
-63 126 177 0
34 -111 163 0
-36 88 -236 0
22 -48 -156 0
89 145 158 0
52 -152 216 0
-4 103 159 0
94 -117 -172 0
-4 68 114 0
-92 125 -195 0
-76 214 221 0
10 -24 185 0
-7 134 167 0
103 146 -201 0
-7 -135 -173 0
22 -63 -228 0
20 -120 -234 0
39 101 -224 0
123 158 233 0
15 215 241 0
81 -130 237 0
35 97 170 0
-69 119 123 0
121 140 -194 0
50 110 224 0
-22 -66 220 0
-104 -179 -231 0
16 -106 239 0
-87 -185 -224 0
153 186 -220 0
-96 -132 -163 0
-6 -21 189 0
-53 -108 189 0
143 -175 211 0
83 -124 180 0
44 -117 -171 0
64 -105 -208 0
-52 -135 -239 0
-10 -41 -195 0
-73 114 -238 0
-15 151 223 0
10 -154 190 0
-15 -33 -174 0
122 126 -167 0
4 60 196 0
-34 124 184 0
-61 102 112 0
91 163 -218 0
1 -46 -148 0
140 -194 232 0
-12 -170 191 0
-162 195 -237 0
-31 49 73 0
-66 -216 237 0
24 -233 244 0
128 193 199 0
-31 33 208 0
38 -81 -163 0
-27 -81 -120 0
93 102 175 0
128 -194 -196 0
21 -160 -242 0
84 151 -241 0
63 -155 178 0
91 97 -124 0
17 33 121 0
33 -73 -244 0
-109 -133 222 0
-29 64 154 0
-27 -112 -127 0
-74 -107 144 0
-6 -47 235 0
67 -87 -216 0
-63 105 164 0
37 -215 -242 0
150 -222 232 0
-79 -83 108 0
-215 -238 -244 0
2 205 -231 0
46 65 176 0
111 151 -180 0
125 189 221 0
31 166 -175 0
-34 -99 -236 0
29 70 133 0
13 -208 -231 0
102 -118 -141 0
55 139 -215 0
-25 61 143 0
-5 -203 231 0
39 -151 -219 0
91 155 231 0
41 -119 -182 0
61 71 -99 0
60 104 142 0
-151 226 239 0
13 37 187 0
72 -210 244 0
-19 -114 195 0
7 -9 95 0
-127 -142 219 0
91 -95 -190 0
92 -111 -242 0
-64 -110 176 0
25 87 210 0
-57 -145 -229 0
-93 -111 -148 0
-15 -26 210 0
74 153 -170 0
46 222 -229 0
-64 161 -221 0
55 119 -156 0
32 66 199 0
44 54 207 0
13 -58 145 0
41 45 -122 0
40 105 112 0
30 67 -118 0
33 -42 109 0
83 120 203 0
-29 152 195 0
11 -72 217 0
68 126 197 0
-20 -48 176 0
-60 -207 235 0
-13 -132 154 0
159 -170 -174 0
40 49 158 0
-59 100 178 0
93 -133 -200 0
6 82 -168 0
-32 -41 -192 0
-52 131 -167 0
25 72 -125 0
46 -75 139 0
29 -48 -129 0
-44 -124 206 0
6 74 109 0
-142 167 213 0
43 136 180 0
-58 -98 203 0
-82 106 -214 0
103 -175 201 0
-34 -107 175 0
-24 -44 49 0
29 50 -126 0
-40 -149 -158 0
3 4 153 0
84 -179 233 0
-101 146 217 0
-29 62 -162 0
11 188 -234 0
38 83 -117 0
60 -141 212 0
-22 -79 109 0
-36 55 202 0
23 157 173 0
54 167 197 0
38 -166 198 0
72 -137 -195 0
-43 177 218 0
62 -108 -143 0
-35 45 131 0
-14 -186 -233 0
25 -33 -229 0
123 -165 228 0
45 97 -202 0
61 91 -146 0
-91 -219 233 0
33 -152 206 0
-21 154 -243 0
-25 -37 113 0
-89 -93 -178 0
70 118 131 0
-129 151 192 0
-23 -97 -159 0
-22 -100 -103 0
77 86 -223 0
-38 116 130 0
-45 -115 -168 0
-15 79 -204 0
20 32 -152 0
51 66 232 0
50 -106 -161 0
64 78 79 0
-71 -97 -222 0
54 72 -87 0
25 -110 150 0
44 -114 181 0
89 -166 223 0
-76 146 244 0
105 -140 165 0
-36 139 220 0
58 94 -133 0
-79 -111 173 0
73 87 -189 0
-31 169 -207 0
97 150 -214 0
-31 94 215 0
-38 74 102 0
-7 64 66 0
-7 39 -74 0
-42 92 -137 0
-15 62 91 0
-55 -160 -228 0
24 128 174 0
-14 -114 -221 0
33 81 137 0
35 114 -153 0
116 117 -235 0
-30 -134 160 0
-16 64 93 0
-28 -46 216 0
-71 103 -207 0
-58 124 -212 0
21 143 205 0
-3 -51 95 0
-173 198 226 0
-49 104 173 0
60 -71 -161 0
78 -99 182 0
-158 -169 215 0
-160 186 -192 0
-20 -194 224 0
-13 -139 -164 0
25 -96 158 0
-55 74 -191 0
1 10 212 0
-11 -26 105 0
-68 -93 110 0
-8 34 -38 0
-4 -78 191 0
88 118 173 0
177 225 235 0
114 130 181 0
-7 -141 211 0
94 210 229 0
-12 -112 -153 0
-29 125 -182 0
8 -87 -184 0
-136 -207 -234 0
-71 131 -158 0
28 -57 203 0
-98 221 222 0
24 29 167 0
77 -99 -163 0
143 -174 -222 0
35 -52 -92 0
-38 -40 -85 0
69 131 179 0
47 -101 -105 0
14 176 -227 0
37 -89 -114 0
-32 129 -199 0
44 200 -243 0
-11 180 -222 0
57 -221 229 0
8 131 221 0
67 191 200 0
6 20 -178 0
-6 55 -115 0
-80 -94 196 0
48 -61 -204 0
-27 192 219 0
42 -51 147 0
12 -160 -243 0
-70 -185 230 0
36 51 171 0
37 167 -214 0
-134 149 199 0
3 25 34 0
49 110 -124 0
83 160 -219 0
12 122 -193 0
-69 -135 -190 0
-37 82 158 0
-29 -137 -141 0
79 194 204 0
-31 46 105 0
148 174 231 0
-40 -172 -174 0
-78 -101 137 0
83 -86 -215 0
-13 -170 -208 0
38 125 166 0
-15 89 233 0
-17 -84 -225 0
-127 -138 -159 0
-22 -52 147 0
70 130 -244 0
-50 -119 232 0
17 68 117 0
-42 153 -156 0
81 178 -218 0
-153 -206 220 0
144 150 229 0
-90 -94 -176 0
82 -163 231 0
40 61 -104 0
29 66 -187 0
27 -100 226 0
135 144 168 0
1 -61 154 0
171 195 239 0
-49 -64 -221 0
38 -76 -237 0
-92 -105 -238 0
110 -198 243 0
27 42 -71 0
-65 99 -242 0
-74 114 212 0
67 205 -209 0
21 89 115 0
-14 -70 -190 0
12 -135 207 0
-32 -152 205 0
137 208 -235 0
-75 203 -231 0
108 222 -235 0
147 -169 -217 0
52 60 -91 0
-113 -153 180 0
-138 -152 227 0
9 -49 231 0
-134 -205 225 0
47 -72 140 0
50 -84 -100 0
-13 -35 -165 0
51 184 189 0
82 -126 -151 0
-48 143 206 0
-107 122 231 0
-55 121 162 0
-10 -21 -242 0
-20 -133 199 0
-17 46 140 0
-178 197 215 0
78 -223 235 0
39 -83 -127 0
127 145 194 0
-152 -158 196 0
-90 -130 230 0
126 149 -235 0
-61 -118 -237 0
-11 -213 -227 0
18 185 186 0
171 189 -232 0
-14 -46 -234 0
-64 -208 -244 0
15 -44 -91 0
55 233 -244 0
5 -148 156 0
112 126 -156 0
72 -153 172 0
57 -86 -93 0
37 -97 152 0
25 148 180 0
-122 -133 158 0
-69 -161 234 0
-7 77 -95 0
-41 -113 174 0
-52 -134 163 0
13 84 -118 0
-24 83 201 0
-3 81 178 0
46 191 221 0
-10 55 -151 0
-90 -103 -141 0
-3 12 -187 0
-7 41 -112 0
34 156 -184 0
-85 95 -144 0
-138 -158 210 0
-138 -176 -223 0
61 137 162 0
-122 136 194 0
-114 -134 151 0
-23 42 -241 0
44 124 -163 0
33 205 -222 0
35 -116 -199 0
-13 90 189 0
-36 202 -211 0
-17 -50 -113 0
-115 -132 -193 0
7 -213 -240 0
-164 169 206 0
68 -215 227 0
-49 -126 233 0
-90 -207 241 0
-27 124 -189 0
-8 -83 -191 0
54 114 -168 0
-11 181 182 0
-20 -72 -139 0
-13 -105 -184 0
-147 162 -186 0
61 83 175 0
-53 -81 -144 0
-1 144 -150 0
-70 95 163 0
90 143 -195 0
13 -19 -176 0
36 -190 217 0
-131 153 -176 0
1 -3 -73 0
-39 123 225 0
81 -166 217 0
-14 56 -190 0
29 -105 -211 0
89 -116 172 0
-11 -90 146 0
11 42 -165 0
99 141 222 0
7 39 -56 0
-78 105 -110 0
49 -112 -218 0
-74 -121 -189 0
18 -49 -123 0
108 -182 224 0
-3 75 86 0
26 -142 -163 0
77 -158 227 0
-45 136 -213 0
12 48 -81 0
-1 -85 -126 0
-66 102 -131 0
3 6 -205 0
12 18 -134 0
-15 42 187 0
12 21 136 0
-4 198 243 0
-87 -102 160 0
83 -165 226 0
-103 119 -224 0
-156 216 226 0
40 206 215 0
-59 214 234 0
-20 -32 135 0
-147 -212 -228 0
68 73 138 0
146 -188 211 0
55 87 224 0
-65 168 190 0
-45 65 -70 0
43 -61 -131 0
139 -153 -181 0
9 -90 -120 0
73 -111 196 0
30 -87 142 0
-31 43 -145 0
33 -43 237 0
-19 -32 115 0
-62 -80 175 0
25 -79 92 0
-2 -16 78 0
4 139 -176 0
87 -120 170 0
-12 22 116 0
140 166 235 0
88 -113 148 0
66 70 109 0
-2 -94 -106 0
102 -180 -185 0
-45 -150 -242 0
62 -124 144 0
-40 65 170 0
51 -52 219 0
-14 74 -230 0
33 -47 -227 0
14 158 -189 0
-124 -169 -233 0
16 43 -64 0
44 135 158 0
86 101 -165 0
-28 63 113 0
46 -124 177 0
39 -43 -193 0
-165 -195 -231 0
-97 132 -156 0
36 41 244 0
67 115 -127 0
13 22 234 0
-93 -119 -133 0
-21 -58 -238 0
-93 -149 156 0
20 68 221 0
115 -160 -186 0
44 92 -194 0
100 -205 -215 0
24 85 -216 0
-221 225 -240 0
35 93 -233 0
-30 57 -156 0
45 52 -165 0
22 102 -158 0
8 20 -81 0
3 99 -119 0
-25 -95 -118 0
139 201 221 0
-102 217 -227 0
148 -189 -209 0
19 80 129 0
-2 19 -194 0
39 -43 -99 0
-29 133 225 0
144 -204 -234 0
38 -58 68 0
4 -37 -71 0
-103 -216 -236 0
65 -90 -222 0
-72 -89 130 0
-142 218 -236 0
-102 -196 -206 0
-19 -36 -226 0
-61 -104 138 0
-9 -61 -186 0
-75 174 -189 0
-65 -88 -171 0
-92 -133 -220 0
77 -154 -223 0
24 120 148 0
-71 135 -160 0
-104 -111 234 0
7 -131 -175 0
-79 -182 -213 0
5 -10 51 0
-145 222 -224 0
-27 -65 237 0
-60 88 -98 0
85 110 149 0
-69 88 133 0
104 -124 -186 0
53 89 -143 0
-26 -98 219 0
21 -49 -99 0
-58 118 206 0
141 199 231 0
40 -70 236 0
-74 -85 -196 0
-127 210 -235 0
-102 -118 -240 0
-27 -44 46 0
16 -33 173 0
161 206 -228 0
-10 -218 236 0
81 -141 -226 0
-20 128 195 0
-140 -154 166 0
-25 36 -161 0
-80 -130 200 0
-35 108 228 0
13 -111 -122 0
78 -119 205 0
81 114 198 0
-134 141 184 0
7 71 -155 0
36 91 168 0
-28 -128 220 0
-36 -216 221 0
-77 -222 231 0
7 133 -204 0
98 -127 -132 0
-88 157 -232 0
-20 25 -227 0
-126 234 244 0
71 81 223 0
52 73 112 0
-57 -88 -98 0
35 114 143 0
-13 -145 -146 0
114 177 -232 0
-101 139 -244 0
120 -155 234 0
47 -177 198 0
152 202 219 0
144 187 230 0
-55 -110 239 0
25 55 221 0
-15 97 148 0
-77 138 -200 0
-45 -81 168 0
63 143 156 0
-75 93 -226 0
101 -185 -188 0
-11 200 226 0
58 86 188 0
33 -164 -200 0
-65 -113 224 0
-21 -175 -238 0
-1 13 -85 0
-176 -208 -240 0
28 -82 120 0
-3 -8 -165 0
70 -84 93 0
-29 -44 205 0
104 -193 -196 0
19 -165 -206 0
-66 103 195 0
-97 -173 214 0
-14 -63 -113 0
-3 -69 -81 0
-40 -172 203 0
205 -214 222 0
-110 122 136 0
-111 117 -182 0
83 171 -232 0
63 -73 169 0
153 -196 211 0
-11 133 158 0
-124 213 -226 0
-22 55 -207 0
11 -79 197 0
-56 155 -218 0
-29 110 211 0
123 138 -225 0
72 78 -190 0
-4 214 -224 0
29 108 -194 0
30 123 -152 0
32 -128 190 0
137 -148 -241 0
-90 -140 226 0
82 -89 -99 0
20 -81 240 0
42 -110 207 0
-22 188 -207 0
-135 -193 221 0
115 -180 190 0
-67 90 -112 0
43 -178 198 0
-53 90 -145 0
-1 171 178 0
-15 -85 -145 0
-5 87 219 0
-60 -74 -99 0
-44 -80 -192 0
40 -101 -144 0
112 -128 -196 0
2 -140 183 0
21 -69 -102 0
-111 195 202 0
8 48 -190 0
-3 159 -167 0
-19 49 -164 0
-62 76 127 0
46 127 -162 0
55 -74 -77 0
-78 -167 -180 0
102 -208 209 0
-103 -165 237 0
-32 -112 124 0
120 -177 -188 0
83 129 145 0
-2 -157 193 0
-38 -49 -166 0
-5 23 -117 0
15 23 -29 0
-213 216 237 0
31 -56 -185 0
65 -153 237 0
94 111 -133 0
24 220 -241 0
31 65 -104 0
39 225 -226 0
11 -185 -196 0
62 91 -124 0
-67 76 -223 0
-33 42 205 0
66 -90 -183 0
24 -102 -239 0
-61 -152 174 0
147 181 -219 0
133 -182 -210 0
103 120 -212 0
-178 179 -181 0
24 -121 242 0
43 -77 158 0
67 -108 199 0
-68 -96 122 0
17 -103 -186 0
-117 -133 151 0
-51 77 -177 0
47 -55 -173 0
192 199 219 0
-80 -174 -243 0
-4 84 91 0
27 216 239 0
38 54 -151 0
-61 -117 -236 0
70 -92 -94 0
2 82 192 0
69 -77 193 0
61 151 199 0
-30 -47 -107 0
-87 98 -182 0
-172 191 207 0
18 117 -137 0
2 -64 133 0
-137 233 237 0
27 143 -217 0
82 -97 -155 0
-12 -69 -125 0
-9 -81 -124 0
-65 83 84 0
-97 105 159 0
92 140 -154 0
-8 51 74 0
86 105 -170 0
96 -185 -216 0
-87 154 232 0
-36 45 -210 0
76 83 208 0
-3 -69 234 0
-24 -159 178 0
-94 114 -210 0
-38 -42 -104 0
67 -171 230 0
15 -97 -217 0
25 58 -215 0
52 125 -217 0
-11 147 173 0
7 80 -204 0
-51 60 171 0
174 -188 239 0
-44 187 -243 0
12 61 -105 0
-103 163 -215 0
17 -174 -211 0
9 -65 -112 0
3 -65 -132 0
94 113 182 0
-8 -75 -226 0
-6 116 -158 0
26 -30 -65 0
10 100 -140 0
-41 204 -234 0
-27 49 106 0
-88 -96 190 0
41 -121 241 0
97 -113 186 0
-3 -4 225 0
-90 121 -226 0
-62 140 193 0
47 98 157 0
12 139 -232 0
-11 -109 220 0
133 161 192 0
-17 -90 -187 0
13 144 -244 0
130 134 137 0
-6 -15 83 0
-201 -223 239 0
-51 115 -167 0
-113 -116 205 0
-85 -162 241 0
-118 178 242 0
14 109 -239 0
-58 -178 225 0
-41 -89 -187 0
120 124 241 0
-142 -160 209 0
-23 50 -204 0
-17 -221 -239 0
-35 100 203 0
80 -151 227 0
60 76 203 0
-59 161 -241 0
29 145 152 0
182 -193 196 0
-33 108 -175 0
116 144 147 0
-98 137 -141 0
-72 -125 -227 0
-10 185 238 0
-25 214 215 0
9 110 -189 0
-31 88 146 0
2 -55 -168 0
76 79 234 0
-103 149 236 0
-25 100 152 0
164 -178 232 0
-79 143 237 0
95 114 241 0
-154 194 231 0
-138 -160 244 0
25 118 -165 0
-22 -80 83 0
-13 60 121 0
28 170 192 0
-130 212 243 0
-15 -53 -216 0
8 103 -144 0
57 -127 -143 0
44 -241 -243 0
-11 177 -228 0
4 8 105 0
-65 -85 -197 0
-81 -138 -232 0
-91 -113 207 0
119 121 220 0
-93 -124 -222 0
87 169 -214 0
13 -34 -66 0
-193 221 244 0
132 -202 210 0
-14 95 -135 0
33 116 170 0
31 -36 62 0
145 191 -214 0
67 224 233 0
14 -96 115 0
-54 -143 -225 0
-26 -108 219 0
-83 -199 -204 0
-45 -149 226 0
-126 -158 204 0
5 46 87 0
36 -105 225 0
-14 35 117 0
-97 -134 -193 0
127 -243 244 0
134 226 -231 0
45 168 219 0
-85 -87 107 0
5 106 177 0
31 -64 166 0
11 -197 241 0
110 -144 -168 0
70 -91 -181 0
69 135 -188 0
116 -117 -150 0
90 103 177 0
58 -124 -172 0
63 145 -223 0
-23 -52 -167 0
-89 -115 243 0
23 -126 238 0
70 -133 -162 0
-22 49 157 0
11 -180 233 0
48 -79 244 0
27 216 224 0
12 -107 190 0
25 115 163 0
-94 -122 186 0
-198 -209 -223 0
33 82 230 0
-20 162 241 0
87 -111 -181 0
43 52 112 0
-13 40 172 0
-38 -65 -194 0
-96 -115 -231 0
26 -138 -172 0
-31 71 198 0
18 93 -107 0
24 83 215 0
13 -183 -213 0
-16 124 225 0
18 22 -126 0
-61 205 -226 0
-40 -77 220 0
4 74 -105 0
29 33 133 0
-33 72 -134 0
-186 -189 -221 0
19 72 150 0
-127 -220 -230 0
118 -224 227 0
-7 24 178 0
-57 -178 229 0
-117 -164 -221 0
57 -105 205 0
-49 -89 197 0
42 54 169 0
-8 -54 -72 0
29 48 124 0
58 -67 234 0
21 50 -56 0
35 -119 -144 0
-38 -158 -235 0
-102 -150 -233 0
53 -66 -195 0
70 106 -217 0
47 57 -182 0
-23 69 129 0
-32 -47 89 0
-47 129 204 0
17 -33 68 0
15 -79 -231 0
79 -200 237 0
-14 68 129 0
33 -70 -99 0
179 219 240 0
-136 -171 -194 0
87 -173 -194 0
126 216 -227 0
125 -177 212 0
-54 -59 -66 0
-89 -123 -219 0
24 82 -237 0
43 -240 -244 0
66 -138 231 0
-152 -154 -177 0
-27 196 -209 0
2 6 26 0
-74 -209 224 0
-44 -112 -215 0
142 -174 -186 0
-11 38 155 0
187 -231 -233 0
126 -156 -214 0
3 98 -238 0
63 -76 -230 0
21 146 176 0
-2 -33 -163 0
58 67 239 0
48 -104 177 0
199 -216 229 0
96 -118 -145 0
-110 -201 -236 0
99 143 161 0
20 -63 -104 0
-52 -71 152 0
-30 70 185 0
-50 -62 -152 0
91 154 174 0
128 171 -195 0
190 -202 -221 0
-99 184 -217 0
-49 76 83 0
-82 -89 -224 0
-121 170 191 0
-154 -191 -216 0
-135 174 230 0
67 168 221 0
-11 -138 -147 0
1 -3 92 0
80 147 -158 0
-67 -109 -184 0
-20 130 -179 0
19 -120 140 0
-103 151 -202 0
32 -175 -199 0
-36 120 146 0
-53 -81 166 0
-45 -58 -134 0
26 132 -140 0
213 -236 239 0
-14 59 225 0
42 -93 -212 0
82 128 -205 0
-6 -8 -73 0
14 90 180 0
187 -201 232 0
-102 -128 -148 0
-17 -149 -172 0
-82 125 -207 0
-36 -126 201 0
60 -133 218 0
115 146 205 0
-77 -134 230 0
-103 -138 242 0
190 -208 240 0
-45 -130 -172 0
-133 -139 150 0
-118 -236 -238 0
-80 -90 -104 0
-181 196 232 0
130 178 191 0
-33 174 -227 0
217 226 233 0
59 143 234 0
-12 141 206 0
124 153 213 0
-66 68 -127 0
79 180 -200 0
-80 127 -191 0
-42 -55 -229 0
172 -173 176 0
-173 179 -232 0
53 -80 105 0
-24 201 -222 0
100 211 -214 0
-90 108 -183 0
49 59 192 0
-34 145 -161 0
30 -165 -199 0
-67 -160 -171 0
40 51 -62 0
120 213 -230 0
20 146 -174 0
21 109 189 0
16 25 -34 0
5 -50 -206 0
-70 212 -229 0
52 -66 219 0
3 -39 -65 0
166 179 185 0
-64 -82 199 0
66 73 -244 0
-8 -74 164 0
-55 108 -200 0
18 -134 149 0
-28 -101 182 0
5 135 -185 0
-160 170 -172 0
-59 215 220 0
-31 -35 -154 0
75 95 184 0
-39 -62 180 0
-56 -157 226 0
-2 149 -239 0
106 -177 -188 0
5 -65 -175 0
-99 141 -179 0
-66 -104 -204 0
-95 123 -207 0
84 -93 187 0
-36 -37 40 0
-154 -159 228 0
52 -59 243 0
96 189 -217 0
4 -74 -217 0
132 174 -212 0
117 -142 -172 0
