p cnf 281 1197
-36 -149 -227 0
-199 -277 -279 0
149 -273 279 0
5 26 -49 0
56 149 -214 0
170 184 194 0
-39 -261 273 0
-65 184 -246 0
-94 -168 -205 0
158 202 -213 0
27 -165 -281 0
-33 91 -119 0
53 -114 116 0
-1 -88 111 0
-9 199 -264 0
-169 200 225 0
9 44 175 0
-259 268 -275 0
50 -110 -112 0
51 -187 -246 0
-8 249 255 0
24 123 -136 0
134 -220 222 0
50 141 -168 0
-83 -181 -258 0
1 257 -269 0
-64 206 263 0
-15 113 219 0
-22 -125 197 0
-225 243 274 0
-77 -154 -241 0
-39 183 -194 0
8 -70 -172 0
-51 -57 -151 0
16 124 171 0
176 220 260 0
-27 88 215 0
-237 -240 270 0
-14 -63 -80 0
-34 174 176 0
-92 -193 272 0
13 -175 264 0
-61 -121 136 0
8 -124 236 0
123 -165 -266 0
165 -194 -257 0
15 201 210 0
14 82 226 0
-135 -176 272 0
-33 -37 42 0
-46 85 -229 0
114 115 239 0
-32 -95 -269 0
140 -156 -189 0
-105 -123 251 0
-20 -99 152 0
114 -173 -177 0
60 72 150 0
-98 -157 228 0
94 -240 245 0
-225 255 261 0
90 -134 135 0
31 -119 -204 0
91 -109 165 0
25 -111 -228 0
69 -121 -269 0
-29 30 142 0
20 -137 168 0
75 -139 -259 0
11 38 -148 0
14 -207 213 0
-92 -140 261 0
96 130 159 0
-136 -176 190 0
-193 -259 -272 0
62 170 -206 0
-60 108 253 0
53 -213 -268 0
-74 98 -255 0
22 63 -143 0
158 182 -236 0
-19 48 186 0
-58 93 163 0
31 55 170 0
-13 114 172 0
188 219 222 0
-93 -162 -243 0
-125 153 -250 0
30 -102 -107 0
-133 202 -208 0
-21 116 -174 0
-198 -235 255 0
-71 177 -197 0
-89 107 206 0
24 115 -119 0
35 -158 164 0
56 238 261 0
-86 -132 140 0
69 110 -281 0
55 -66 105 0
95 150 -245 0
-49 139 270 0
50 -122 -212 0
-3 135 173 0
26 174 -208 0
61 -91 -190 0
-31 -90 -158 0
-92 158 247 0
2 -33 -161 0
-105 193 -223 0
-55 -146 -272 0
-104 167 213 0
40 -79 -136 0
140 -169 237 0
68 226 -275 0
102 -170 -241 0
-65 233 240 0
-162 -166 -210 0
53 128 -183 0
-150 226 -273 0
30 -114 -138 0
52 95 150 0
39 -78 -193 0
71 -88 -179 0
100 -121 -182 0
-19 138 -218 0
85 -137 -237 0
-3 24 -143 0
-153 -245 -280 0
-67 -124 277 0
-63 -171 -201 0
147 -151 191 0
95 -111 -136 0
30 -43 -280 0
-23 35 162 0
-2 -27 -254 0
-75 164 -165 0
-64 -96 -114 0
8 160 281 0
-3 35 248 0
19 -212 -229 0
154 -232 238 0
-3 169 181 0
40 -118 -211 0
-93 184 203 0
-6 40 -232 0
-19 143 -251 0
97 118 -145 0
-6 96 -173 0
7 -36 54 0
28 -73 255 0
-73 122 -212 0
202 233 264 0
-44 202 213 0
-59 141 -156 0
-87 -215 -266 0
52 57 243 0
-139 -174 -271 0
46 -187 202 0
109 -218 -245 0
-72 151 -275 0
-38 -114 240 0
-35 -117 233 0
73 128 -209 0
-15 -110 -281 0
32 -149 -268 0
91 174 -277 0
-58 -66 -215 0
216 224 257 0
117 -161 280 0
-193 227 -244 0
-1 54 123 0
-2 -127 -255 0
145 151 -272 0
-2 -54 137 0
220 -274 -280 0
-85 170 -198 0
64 -191 -260 0
-140 -154 -274 0
-30 178 268 0
-170 232 252 0
-12 93 213 0
-15 -45 173 0
53 92 -230 0
-38 174 205 0
-62 97 268 0
2 197 -251 0
-73 89 -141 0
27 -138 281 0
14 -46 95 0
-21 -43 -260 0
-49 166 205 0
72 173 272 0
15 23 -120 0
-35 -94 276 0
3 -35 -247 0
-91 178 -222 0
-226 -231 258 0
-66 -204 266 0
-96 97 187 0
-27 121 -218 0
-38 149 -275 0
43 47 -255 0
-57 -136 221 0
-121 154 -181 0
-40 66 -224 0
16 98 -251 0
124 -146 234 0
58 -224 -225 0
20 -99 -174 0
14 192 -227 0
-77 -93 -164 0
-7 40 -173 0
110 154 -202 0
208 -256 -277 0
-41 -109 219 0
-93 183 246 0
-27 -45 -224 0
-116 200 -228 0
42 -227 264 0
77 92 -257 0
-110 115 230 0
-122 -131 258 0
86 -121 129 0
145 183 222 0
-108 -206 226 0
47 50 256 0
-104 174 -231 0
36 252 -258 0
-55 76 -176 0
2 216 228 0
118 -122 268 0
157 190 241 0
94 201 225 0
15 39 93 0
-74 -117 240 0
-11 -187 -226 0
130 187 234 0
-43 169 -181 0
239 -262 -271 0
-5 116 225 0
41 45 193 0
4 -188 -225 0
255 270 -277 0
5 -43 -82 0
162 -193 -202 0
61 65 213 0
-51 114 -144 0
-17 150 -243 0
-81 -221 247 0
126 166 -211 0
101 -107 -176 0
137 -240 -259 0
-58 -75 -98 0
-49 184 205 0
46 -149 -277 0
-105 -185 -189 0
-1 222 -235 0
35 -73 135 0
-41 120 -280 0
-3 -54 -193 0
-24 66 69 0
-66 -134 -241 0
60 -117 -262 0
-78 -93 -123 0
17 -222 265 0
-59 -73 215 0
-144 -145 -187 0
15 35 -41 0
-34 -51 -230 0
-181 227 229 0
-22 158 176 0
12 -46 96 0
-116 135 197 0
186 -189 -274 0
68 78 -277 0
-151 204 262 0
41 231 -234 0
127 -188 -235 0
110 -115 278 0
-89 -124 -240 0
-41 98 269 0
49 64 -165 0
34 91 -202 0
13 -31 266 0
8 -184 209 0
-43 114 -235 0
79 -83 -156 0
-2 -38 180 0
-194 223 -244 0
-26 74 238 0
236 -250 -268 0
42 138 222 0
-40 -86 228 0
-44 -119 -249 0
178 -231 -246 0
29 -61 -274 0
8 61 145 0
-63 159 -202 0
-40 70 -119 0
31 -78 -248 0
35 104 -159 0
22 141 227 0
-32 -46 147 0
-30 100 -118 0
-78 94 -219 0
2 -88 -133 0
28 32 -114 0
48 -87 254 0
77 184 185 0
-24 -25 -47 0
167 -194 203 0
8 72 -117 0
46 -123 -253 0
-142 143 179 0
-34 60 143 0
-90 222 -267 0
-31 -109 183 0
47 -56 264 0
-62 80 181 0
75 103 -146 0
13 -69 -98 0
-26 -144 279 0
85 -177 -197 0
-102 -237 271 0
133 222 235 0
16 62 -98 0
-188 -235 -273 0
18 19 118 0
175 -203 210 0
52 -154 247 0
-24 93 -167 0
12 -40 -202 0
-61 170 274 0
-34 66 -77 0
223 -252 -277 0
-49 186 -260 0
-8 73 199 0
126 -239 254 0
-88 -135 -140 0
98 -168 -233 0
-135 -191 -242 0
55 58 198 0
189 -208 -247 0
165 242 -267 0
-26 123 -177 0
-30 -183 212 0
24 -55 -246 0
-67 153 -249 0
39 191 279 0
-59 128 -175 0
43 -201 203 0
16 -34 166 0
-106 221 -264 0
-62 67 -228 0
90 -114 221 0
-112 191 226 0
4 -108 -208 0
102 -125 232 0
-14 -36 240 0
162 230 -277 0
-13 62 75 0
-30 -52 206 0
67 155 -234 0
110 -140 194 0
-7 87 -113 0
153 -210 -260 0
61 -130 181 0
-32 -95 254 0
-135 144 -264 0
-96 212 -226 0
-93 -224 -246 0
-62 82 141 0
125 -176 -181 0
-8 35 96 0
12 -78 -88 0
87 -223 240 0
130 -243 245 0
-73 -156 -169 0
-16 -47 -168 0
12 146 -281 0
-69 -171 196 0
-26 35 -183 0
-143 244 -245 0
31 147 -181 0
28 70 143 0
22 29 -185 0
-145 169 252 0
206 -258 267 0
-133 -234 -245 0
3 -12 -277 0
17 51 248 0
65 -80 -160 0
71 245 -250 0
34 -185 249 0
-97 -152 268 0
-33 94 256 0
-118 133 246 0
-165 -179 -258 0
99 -160 187 0
-47 101 -117 0
6 -139 -179 0
-89 207 259 0
-157 -206 -246 0
-5 9 200 0
-37 47 -82 0
-40 73 106 0
-160 276 281 0
147 -153 -259 0
88 -139 -180 0
127 134 137 0
81 86 234 0
-124 -240 269 0
-41 95 118 0
-1 97 -212 0
-120 162 -245 0
97 -140 174 0
-28 241 249 0
121 149 166 0
90 -112 138 0
-17 76 164 0
30 176 -201 0
-127 128 191 0
179 258 266 0
-32 -202 -222 0
-43 -70 -281 0
-25 -108 272 0
-9 58 151 0
-120 144 -192 0
-15 -103 -149 0
-41 265 267 0
74 162 199 0
26 73 -224 0
50 95 -259 0
-1 -98 258 0
-136 -179 201 0
64 145 -146 0
120 -136 166 0
-51 -134 -237 0
1 129 258 0
-69 -111 -234 0
-92 101 185 0
35 163 -177 0
12 200 -232 0
234 -252 264 0
-134 210 -273 0
165 -264 270 0
-90 196 -232 0
-44 88 -265 0
19 92 -281 0
-47 -179 -256 0
31 -100 -264 0
160 -246 -265 0
47 175 236 0
-211 234 -275 0
115 129 236 0
-12 -16 267 0
-17 -98 121 0
-17 -93 281 0
9 10 -98 0
120 215 -266 0
-97 -127 -142 0
-78 132 214 0
-114 -217 218 0
64 176 207 0
182 -216 -265 0
63 -121 -266 0
156 209 278 0
-133 153 274 0
-26 247 272 0
-54 -112 -220 0
30 58 153 0
-77 95 -221 0
14 -140 -252 0
-2 -50 -136 0
-222 244 -260 0
-162 -237 253 0
-8 -19 61 0
-21 -63 116 0
7 -162 -246 0
-137 -144 -272 0
-99 103 137 0
73 232 267 0
-36 253 -280 0
144 -181 238 0
-60 115 182 0
-19 55 -64 0
-52 75 254 0
15 40 158 0
-142 -212 -237 0
40 116 -155 0
26 38 -54 0
-15 114 128 0
-131 -138 254 0
2 20 -38 0
-93 -146 -181 0
-54 150 248 0
8 123 165 0
-46 190 -198 0
-116 -212 -250 0
34 -179 -237 0
-11 23 -151 0
-11 -94 -239 0
122 -143 228 0
-38 -183 -194 0
78 221 253 0
93 -208 212 0
-33 -36 -63 0
-67 184 256 0
1 97 251 0
4 119 -189 0
-65 -147 269 0
-27 -87 -173 0
72 85 273 0
106 -119 196 0
31 128 241 0
-168 -217 -265 0
44 77 165 0
-90 216 247 0
-45 103 208 0
-51 -180 -229 0
126 -168 266 0
-73 -90 -195 0
45 119 183 0
-63 -125 -137 0
148 -180 279 0
33 -55 216 0
181 -241 273 0
-86 161 269 0
-77 -126 -188 0
142 202 -256 0
106 263 270 0
-17 -126 186 0
-115 182 278 0
-73 -174 -275 0
-69 -129 -221 0
-29 91 -169 0
-167 -171 -227 0
-48 -62 122 0
-85 -95 -271 0
11 -96 185 0
118 -158 159 0
-74 159 -274 0
-10 -20 247 0
19 39 -151 0
-44 67 170 0
89 191 -193 0
32 149 -194 0
-63 -171 -182 0
-99 124 163 0
7 95 244 0
61 -175 211 0
-25 -82 -126 0
-34 47 -183 0
153 190 -250 0
-7 50 92 0
-52 161 -167 0
-101 -102 -244 0
-115 245 266 0
-50 95 198 0
17 99 121 0
-48 126 188 0
167 233 262 0
-103 -153 221 0
38 146 176 0
118 191 258 0
-15 229 -255 0
-89 278 -280 0
-15 45 -62 0
-56 115 -195 0
-46 -173 -279 0
-21 24 270 0
-86 140 263 0
-5 21 225 0
37 74 247 0
-4 110 -251 0
88 -104 -141 0
-13 127 -144 0
146 201 247 0
104 -146 188 0
211 249 261 0
-40 -227 253 0
125 191 273 0
14 -85 160 0
102 -194 247 0
-9 254 -264 0
-39 43 150 0
-96 140 -191 0
103 158 -275 0
-67 -132 -197 0
71 231 246 0
-104 -204 270 0
5 8 -69 0
-94 -153 -218 0
-10 -204 222 0
-105 115 274 0
40 -88 239 0
-133 -202 -209 0
-37 -50 251 0
-2 205 228 0
-22 193 -208 0
-12 -153 -181 0
-11 -82 228 0
-29 216 223 0
-22 189 -273 0
-50 70 203 0
-14 -103 -104 0
77 83 165 0
-5 10 -22 0
-209 -238 270 0
-105 -211 -224 0
67 191 229 0
-44 71 132 0
1 -14 15 0
-43 104 -127 0
23 -254 -261 0
-54 57 -188 0
-19 43 190 0
98 -101 180 0
-17 124 184 0
-57 -227 264 0
-6 -172 -270 0
-165 -176 186 0
20 -151 -192 0
-97 220 222 0
141 156 238 0
-67 174 281 0
14 97 -259 0
71 89 164 0
-144 -180 200 0
-5 -178 221 0
61 -194 251 0
120 -163 -277 0
111 144 -218 0
37 139 -260 0
-85 -123 -240 0
53 -92 194 0
-210 224 263 0
102 -147 -214 0
-40 79 99 0
-1 -46 168 0
102 242 -245 0
-27 141 191 0
-46 82 -138 0
-68 -94 -275 0
148 -226 252 0
63 -137 260 0
77 -239 244 0
-58 74 199 0
-116 -158 277 0
-6 -53 216 0
-58 127 135 0
-3 -87 180 0
-96 -217 -225 0
-34 -44 -194 0
70 170 -221 0
7 110 -251 0
-26 72 -163 0
-17 41 -168 0
9 49 118 0
-139 170 -184 0
15 -93 -150 0
-9 89 -234 0
156 172 -176 0
132 159 -224 0
-30 -60 241 0
-122 -143 -172 0
-67 154 241 0
-205 219 261 0
-19 -97 165 0
-89 166 -278 0
-112 -148 -256 0
-166 -204 -235 0
41 143 176 0
-29 -100 -264 0
-122 -156 234 0
-123 -218 -263 0
167 -261 267 0
98 127 157 0
125 -167 209 0
171 235 257 0
87 -108 -228 0
33 155 208 0
-43 -139 211 0
-60 -91 165 0
-3 -215 -277 0
2 -3 -172 0
39 145 223 0
-73 -124 -226 0
141 -189 255 0
-126 -131 -262 0
-31 -149 -171 0
24 50 158 0
127 -148 212 0
-163 -175 -259 0
-72 -128 -167 0
-54 -117 224 0
-24 -26 271 0
17 156 184 0
80 89 -144 0
-1 71 176 0
10 -61 258 0
-62 154 205 0
53 -79 -276 0
-35 197 -241 0
52 -203 223 0
58 139 -276 0
102 -150 -267 0
135 -176 239 0
19 112 276 0
123 179 -270 0
46 157 235 0
31 177 250 0
-53 -69 -99 0
154 -185 -215 0
-86 -94 -113 0
34 154 -174 0
67 -100 254 0
-1 -231 270 0
17 -65 -190 0
-36 -241 -276 0
41 -57 -205 0
-24 -120 -189 0
83 -118 225 0
204 -226 267 0
-47 177 -191 0
87 122 -272 0
-105 -210 219 0
-90 125 -247 0
-88 130 -267 0
-1 55 -238 0
-93 174 230 0
-99 131 -247 0
209 -243 -259 0
51 250 -258 0
11 220 -221 0
-119 -194 221 0
-32 -46 60 0
-127 233 268 0
116 155 157 0
-161 -278 -280 0
-83 244 -279 0
35 -79 273 0
-58 -180 -242 0
69 77 126 0
124 -183 -197 0
30 -232 259 0
12 199 -246 0
-2 -194 268 0
18 66 132 0
59 248 263 0
54 -127 -229 0
-4 14 -100 0
73 106 121 0
201 207 213 0
-99 -194 246 0
-144 -196 272 0
-114 -238 -244 0
-3 37 -259 0
14 23 -270 0
74 180 263 0
118 223 -241 0
154 166 -180 0
91 -185 -240 0
-86 -204 -209 0
-40 119 169 0
-53 70 193 0
24 267 -279 0
53 -157 184 0
59 -145 202 0
-167 -228 272 0
-86 110 162 0
-45 134 -196 0
4 -74 225 0
-26 117 280 0
188 -213 226 0
-176 214 -216 0
30 -143 169 0
83 -115 128 0
67 -180 -254 0
-60 164 -237 0
-43 118 144 0
-57 -122 256 0
-62 -65 205 0
-19 -111 154 0
3 -160 228 0
-19 -82 277 0
-13 106 -179 0
-113 -205 281 0
-218 254 -275 0
151 191 -268 0
-62 -100 151 0
-102 184 -237 0
47 251 -270 0
46 -193 207 0
31 133 -173 0
18 -135 -202 0
-58 188 -202 0
52 -230 -280 0
-124 -199 -207 0
-74 -104 129 0
49 76 236 0
-9 55 -176 0
6 -162 -223 0
-3 -91 225 0
10 -98 -258 0
-86 215 258 0
63 -129 -268 0
-78 197 -275 0
-60 79 164 0
-138 -246 -255 0
116 -122 246 0
-18 -118 -170 0
-22 -60 -258 0
-41 -109 -188 0
-80 -164 272 0
-75 85 -209 0
39 202 254 0
10 -59 241 0
39 -120 201 0
-8 -17 69 0
25 -241 281 0
122 -168 -278 0
6 228 -254 0
81 198 236 0
-146 214 -279 0
-146 208 220 0
159 -187 247 0
206 -209 -225 0
-47 68 106 0
-50 257 263 0
64 -73 -216 0
6 -53 276 0
124 -128 146 0
6 -254 259 0
-113 -117 189 0
-63 -139 -244 0
-67 -97 238 0
185 -218 274 0
2 -199 -225 0
-156 162 -250 0
-37 56 227 0
91 109 -193 0
28 -108 -178 0
-75 -112 -222 0
30 122 218 0
2 36 77 0
-176 185 218 0
-5 89 121 0
65 -244 -259 0
-5 -40 -147 0
-64 103 -248 0
111 119 -249 0
-59 66 -87 0
128 189 -191 0
215 -227 228 0
-6 -99 234 0
-25 147 -193 0
-117 -133 188 0
31 272 273 0
-127 -251 268 0
6 204 217 0
-6 123 252 0
94 197 -276 0
28 -42 252 0
164 -177 -180 0
38 59 95 0
-78 118 -173 0
102 -253 259 0
-40 226 227 0
46 153 251 0
145 174 -191 0
-38 -178 -179 0
-115 -122 -221 0
14 -226 259 0
42 -167 -244 0
115 -143 -190 0
39 -172 186 0
125 199 -253 0
87 149 279 0
-51 -136 224 0
127 211 235 0
-73 -231 244 0
-160 184 -274 0
141 154 253 0
-42 125 -156 0
-164 241 280 0
-60 146 269 0
-54 211 -236 0
-8 -76 -259 0
-39 -185 257 0
-8 81 98 0
-61 194 209 0
30 153 -212 0
149 -184 -208 0
-5 -25 144 0
-65 71 -273 0
62 -166 201 0
50 -56 -195 0
-37 -147 239 0
-107 159 263 0
-33 -109 -195 0
52 78 90 0
-199 225 -262 0
36 79 220 0
121 177 252 0
4 -10 100 0
35 -40 211 0
-113 217 260 0
152 -176 185 0
-2 106 -160 0
-153 -194 -244 0
14 -38 -48 0
73 -98 -128 0
88 -139 234 0
-71 173 -219 0
177 194 -242 0
69 -78 -141 0
-77 105 -160 0
142 -191 -224 0
37 128 245 0
-147 -176 186 0
-18 92 130 0
-11 -175 -275 0
4 36 -170 0
-158 165 178 0
-84 -171 221 0
-12 136 -171 0
7 -98 165 0
36 -62 99 0
122 144 -256 0
-139 228 240 0
93 -186 -237 0
-46 158 -279 0
129 -197 -204 0
41 -89 193 0
137 -153 204 0
-86 144 268 0
96 -98 190 0
12 -53 -196 0
33 -34 -152 0
159 -197 -261 0
40 79 167 0
45 -174 239 0
-147 274 275 0
-161 216 -256 0
4 -36 -137 0
-43 -141 170 0
151 -218 -280 0
-65 148 228 0
-14 42 -78 0
167 185 224 0
91 161 -187 0
51 264 272 0
66 136 219 0
50 121 267 0
-181 -182 197 0
-16 -112 -132 0
75 -179 231 0
19 152 -281 0
-18 -125 200 0
193 -275 279 0
69 -114 280 0
-19 25 239 0
29 102 232 0
-113 132 160 0
-4 119 216 0
23 -89 -139 0
91 124 -179 0
-73 103 267 0
-104 -252 -276 0
-25 175 -264 0
52 63 256 0
-18 204 261 0
-91 129 168 0
-123 -211 -214 0
103 -157 244 0
-18 171 -232 0
40 44 176 0
-20 -100 -140 0
-29 -147 258 0
156 196 248 0
163 207 -260 0
184 -227 276 0
-149 -195 217 0
-56 -186 251 0
-119 -175 -240 0
61 66 -241 0
-133 -168 -181 0
-127 231 -255 0
-58 -139 -226 0
31 -75 215 0
-48 78 253 0
-136 206 -230 0
26 -64 220 0
-102 -159 -180 0
13 153 -236 0
-24 75 185 0
-20 43 189 0
-151 175 184 0
-30 -109 -181 0
73 142 -216 0
8 -15 -19 0
-131 -198 261 0
-9 40 -240 0
98 182 200 0
-38 52 -180 0
-111 154 158 0
174 192 275 0
34 -59 214 0
-99 -100 -112 0
-49 63 -69 0
123 -203 -272 0
-10 136 -190 0
66 124 200 0
38 -106 146 0
67 -69 116 0
-35 -76 -113 0
145 174 -262 0
-54 65 147 0
-24 238 -255 0
3 -32 262 0
74 98 225 0
199 264 272 0
-33 -59 -89 0
34 -53 210 0
-13 146 153 0
-78 -100 -250 0
-92 -100 102 0
-129 -162 211 0
-54 -78 169 0
-29 -103 -255 0
-31 186 261 0
53 -82 123 0
-79 168 196 0
-21 56 230 0
-9 -142 190 0
7 -194 200 0
-123 -224 -273 0
-17 -140 -203 0
-144 -202 -262 0
-56 122 203 0
-78 -204 -258 0
31 71 -187 0
-11 76 277 0
-123 -165 -185 0
-42 -137 154 0
94 108 -212 0
-53 70 209 0
-112 151 171 0
-13 -109 230 0
88 -168 257 0
14 18 -118 0
-56 71 -119 0
21 133 170 0
-21 203 280 0
114 188 201 0
13 126 212 0
20 242 -243 0
-61 -236 243 0
-47 94 -198 0
36 -246 -278 0
64 217 -223 0
91 121 141 0
-114 186 234 0
231 237 -262 0
9 177 265 0
-1 -24 224 0
139 -167 178 0
117 199 -247 0
-24 63 229 0
-23 -62 -89 0
72 139 185 0
-9 -58 -98 0
-82 194 -238 0
-28 66 -241 0
31 126 -190 0
-106 -227 266 0
-136 -169 175 0
-72 94 -173 0
-52 103 -219 0
155 159 -277 0
-55 -74 128 0
29 83 274 0
115 -183 229 0
86 -108 114 0
19 78 -265 0
-147 236 240 0
-103 -185 262 0
203 214 -235 0
-67 -96 -253 0
-180 249 255 0
-62 134 167 0
-126 -214 280 0
-85 -127 -252 0
-130 -159 -196 0
9 -129 242 0
23 115 -127 0
-11 -116 -127 0
-63 74 -242 0
65 148 273 0
-116 -153 -244 0
37 -150 179 0
134 141 239 0
-26 -28 -118 0
-85 229 -268 0
51 -67 -236 0
-148 -183 210 0
-62 -77 115 0
92 -150 177 0
61 -64 134 0
23 59 256 0
-36 94 -212 0
81 135 246 0
68 -90 191 0
25 -87 -249 0
-31 51 -247 0
-89 -187 -253 0
-5 128 204 0
-39 158 -263 0
-172 -191 201 0
-46 -79 177 0
-50 -54 169 0
177 -209 266 0
133 176 -185 0
129 235 -241 0
36 -111 215 0
86 -121 265 0
64 -176 -244 0
-38 122 194 0
-46 104 219 0
37 181 268 0
45 168 -230 0
-87 162 168 0
93 -121 -199 0
18 114 259 0
192 195 230 0
31 90 -281 0
-137 -249 -273 0
-181 221 -232 0
5 88 -176 0
-6 48 280 0
137 -160 197 0
-165 -207 281 0
-77 148 -257 0
3 114 155 0
6 -13 153 0
-185 233 -264 0
7 40 -50 0
107 128 -155 0
59 -176 -264 0
-50 -175 186 0
57 -101 129 0
237 248 -250 0
84 -150 -253 0
-104 -111 -226 0
-27 44 -67 0
67 244 276 0
-97 209 246 0
78 -190 265 0
-217 231 236 0
16 53 -113 0
128 183 -236 0
-159 216 -261 0
11 -101 -130 0
-93 -103 -126 0
65 87 168 0
13 111 -116 0
-166 -176 276 0
17 -185 -277 0
86 173 188 0
-35 88 111 0
96 142 -275 0
46 191 -219 0
-68 95 -158 0
68 73 175 0
115 142 156 0
77 -94 -167 0
96 102 -207 0
53 -60 -153 0
-59 -118 -215 0
-16 136 247 0
-36 77 191 0
-24 263 -266 0
169 -172 273 0
103 216 -261 0
-54 71 105 0
-9 -171 -222 0
25 34 -178 0
-150 250 253 0
52 54 -230 0
174 234 236 0
19 -64 -77 0
-9 -30 69 0
-25 -67 -167 0
29 111 -166 0
-69 -143 175 0
