p cnf 278 1185
-107 128 -158 0
241 -249 253 0
-49 145 -152 0
50 -60 207 0
127 -257 -278 0
51 -80 -247 0
209 -225 -234 0
111 232 255 0
178 -186 195 0
-40 -210 -238 0
7 32 -275 0
171 172 251 0
-14 -158 -225 0
-70 -84 103 0
124 -249 -271 0
217 239 -250 0
-46 96 186 0
48 -138 239 0
-149 -230 243 0
33 104 143 0
81 192 214 0
76 143 -217 0
-21 -143 169 0
100 -167 -222 0
101 127 252 0
11 -44 231 0
-159 205 257 0
173 239 -246 0
20 -245 -264 0
79 -157 262 0
2 -35 259 0
-168 -173 272 0
45 -165 191 0
17 -241 250 0
-15 -102 -250 0
-26 -132 -193 0
4 -11 -167 0
26 -225 -263 0
34 130 -278 0
23 -169 218 0
125 -177 -214 0
66 171 -211 0
-90 -129 131 0
-40 45 -152 0
-76 -168 181 0
30 152 170 0
-29 207 -257 0
-139 -163 187 0
-161 176 -204 0
-7 -8 -113 0
137 -169 -278 0
51 72 -253 0
-110 -182 -278 0
-92 -123 -260 0
-18 -38 -62 0
-62 -157 -266 0
199 -213 264 0
-76 -219 -227 0
138 -162 232 0
208 -246 267 0
-10 32 174 0
22 -143 249 0
-62 200 252 0
113 128 -214 0
-18 104 -119 0
152 -172 -257 0
60 -121 212 0
-98 131 -156 0
12 144 -153 0
-6 164 -236 0
63 111 265 0
-46 82 168 0
-170 -185 262 0
-150 -172 245 0
-73 98 -258 0
99 180 -202 0
-96 -214 -255 0
-113 -115 178 0
-2 -117 134 0
125 152 -252 0
-29 170 245 0
-69 -183 246 0
-129 -206 216 0
24 138 -159 0
-4 63 -194 0
-31 141 -257 0
-3 13 -92 0
57 -223 -232 0
-207 209 253 0
14 89 -236 0
58 159 -259 0
78 140 237 0
20 79 -179 0
-6 49 75 0
86 -146 -227 0
-15 89 105 0
-5 10 -100 0
39 137 160 0
213 219 -269 0
-46 -66 -180 0
-212 -256 -272 0
63 -96 -246 0
-25 85 258 0
-103 -133 -175 0
9 196 246 0
-19 35 73 0
-40 -260 267 0
47 115 166 0
-99 146 -190 0
87 -95 -186 0
36 -72 -216 0
11 -30 172 0
-75 135 183 0
155 203 262 0
15 -69 135 0
1 -12 222 0
-7 88 -218 0
128 194 240 0
-33 115 121 0
11 94 219 0
-81 150 180 0
26 175 241 0
-45 -222 231 0
8 -120 195 0
-81 162 -231 0
116 177 -251 0
110 141 190 0
86 142 -211 0
-52 -78 -103 0
-82 92 173 0
48 111 172 0
-21 -86 206 0
-90 -111 -246 0
111 138 -151 0
21 -152 171 0
-77 249 -267 0
264 268 -273 0
-14 -86 141 0
31 -60 68 0
-49 -105 136 0
28 106 259 0
-66 -166 -192 0
-85 -265 -268 0
-61 143 -231 0
100 -140 -273 0
134 -143 184 0
4 38 -242 0
124 -149 174 0
-106 149 262 0
-1 9 -230 0
-93 -102 -192 0
-82 134 276 0
-48 -245 -246 0
44 58 -70 0
-60 128 213 0
-36 -106 182 0
-77 -113 159 0
27 -40 75 0
13 -201 -203 0
-33 -88 225 0
-49 102 -255 0
30 -109 -140 0
-47 197 236 0
-97 148 -216 0
-56 153 -246 0
-55 133 -203 0
77 101 -259 0
1 -148 -178 0
-19 -146 -196 0
2 -29 262 0
20 -164 -240 0
-18 168 -272 0
32 -42 109 0
48 -154 -191 0
-91 -96 -278 0
47 66 -201 0
45 -81 242 0
74 -85 261 0
-2 116 230 0
-37 97 276 0
-19 77 -231 0
-21 -37 108 0
-56 193 -218 0
-36 55 -148 0
150 240 -273 0
27 -141 240 0
-27 -136 148 0
-45 158 -227 0
-6 -100 273 0
-58 -72 177 0
34 81 -97 0
104 -154 268 0
12 -17 -49 0
83 -113 254 0
-133 -145 162 0
-63 -83 -257 0
78 -104 -273 0
22 129 236 0
-23 -121 -241 0
62 -223 -238 0
41 125 205 0
-45 114 214 0
27 48 186 0
-3 -149 -231 0
-108 205 244 0
38 -52 203 0
-35 -85 216 0
37 -43 154 0
-100 171 193 0
124 162 252 0
-130 -218 231 0
-3 -62 -182 0
-72 111 133 0
38 120 176 0
91 -96 145 0
62 66 -265 0
-66 -88 170 0
77 -156 170 0
83 -142 159 0
-106 179 -263 0
-29 73 212 0
128 207 -208 0
77 111 -260 0
-154 -158 -175 0
16 95 236 0
44 48 -78 0
-245 -262 -270 0
-160 185 250 0
-38 186 204 0
26 38 -218 0
-11 -15 -260 0
72 -163 -182 0
18 -71 202 0
19 -71 -187 0
-200 240 -245 0
147 -188 197 0
35 65 259 0
10 92 -200 0
40 -160 243 0
1 148 243 0
-39 62 -243 0
60 168 183 0
-60 -172 201 0
81 -113 -149 0
-64 87 -278 0
-70 97 182 0
127 -261 -263 0
7 -47 108 0
73 172 173 0
71 100 273 0
85 163 186 0
-83 -202 -273 0
17 178 223 0
6 -223 -239 0
22 -220 -230 0
-18 -62 -236 0
-5 52 -154 0
15 97 -244 0
-146 -182 -270 0
42 -139 -186 0
-1 48 196 0
51 -173 -203 0
-49 -225 -277 0
51 -160 273 0
-82 133 158 0
23 164 -191 0
-28 -67 173 0
164 -214 258 0
1 -78 249 0
-131 -142 -235 0
-129 -132 -270 0
16 197 244 0
-37 117 -167 0
1 -53 63 0
29 104 -185 0
100 -112 160 0
35 244 -255 0
-108 118 -149 0
-20 -54 194 0
-9 46 -188 0
14 117 -271 0
-31 -209 -277 0
-14 -37 181 0
2 -41 105 0
-96 108 -229 0
-70 -138 161 0
-40 -177 187 0
-199 -274 -278 0
-127 -162 -244 0
129 -230 261 0
51 217 218 0
-67 -124 -274 0
82 108 -273 0
67 -87 -228 0
-56 124 -164 0
59 -130 180 0
36 -126 -158 0
-109 136 -247 0
9 39 -62 0
98 223 -251 0
126 -205 -254 0
-123 166 232 0
-46 61 -117 0
155 -168 -278 0
-56 -138 -177 0
99 -230 251 0
117 -180 183 0
138 144 173 0
-123 -198 -266 0
63 -127 -195 0
47 -203 278 0
-82 96 164 0
-47 -150 -184 0
117 -184 -264 0
-107 131 155 0
-7 66 93 0
-53 173 175 0
123 -169 187 0
53 -106 -170 0
-21 -202 256 0
-29 -67 200 0
25 80 -261 0
-62 201 206 0
22 -235 -257 0
9 27 178 0
108 -135 -178 0
60 99 -121 0
41 -118 -164 0
112 -191 207 0
25 96 105 0
-41 -226 234 0
-41 -172 198 0
-35 229 274 0
-64 -74 162 0
151 -162 -258 0
-95 219 -232 0
52 124 274 0
-29 -246 -278 0
-22 82 -137 0
128 258 -267 0
-155 -214 -253 0
54 227 248 0
-27 145 -226 0
-35 -223 278 0
131 146 266 0
-43 -68 -149 0
-16 64 246 0
5 135 -239 0
10 124 184 0
-200 -250 278 0
-89 131 -182 0
28 121 179 0
-26 -61 180 0
-24 -32 -39 0
71 -150 277 0
136 -164 199 0
-239 253 274 0
-35 41 -178 0
-30 -156 -253 0
53 157 -221 0
-65 -114 169 0
29 144 249 0
75 98 147 0
-95 134 253 0
78 87 105 0
-18 -158 171 0
141 -231 -239 0
19 -25 81 0
117 172 -242 0
-17 -97 -117 0
-70 169 206 0
-138 -154 156 0
27 47 -215 0
9 63 90 0
173 235 -241 0
-26 84 -190 0
5 -38 -214 0
122 -143 219 0
2 -95 -126 0
-94 -167 -225 0
128 180 204 0
-119 -166 244 0
2 -35 -39 0
101 221 222 0
110 -266 -278 0
70 -110 192 0
174 217 237 0
-61 113 -258 0
111 117 119 0
29 -178 -191 0
64 169 -264 0
132 -145 -154 0
-100 -180 -195 0
-57 129 269 0
-66 102 -221 0
-41 -61 -117 0
17 -174 -207 0
176 -228 -234 0
82 -83 -191 0
168 207 274 0
-212 260 273 0
127 218 254 0
-55 61 -109 0
-16 -59 -244 0
-211 -242 -274 0
74 -141 169 0
27 217 227 0
-2 -121 -232 0
55 -154 264 0
2 48 194 0
76 184 197 0
-12 -100 183 0
16 21 -55 0
-51 -115 -228 0
-32 137 -230 0
84 -195 205 0
37 -135 -205 0
12 -218 -224 0
27 166 273 0
33 -45 262 0
-8 88 213 0
-29 -87 -134 0
159 -160 -215 0
-102 173 -260 0
1 26 27 0
-12 49 -55 0
46 -53 94 0
39 91 174 0
-36 -158 -246 0
-94 99 146 0
-78 106 161 0
-111 -167 -175 0
-104 -204 258 0
-54 -69 -218 0
-66 103 108 0
63 156 256 0
7 35 -216 0
-7 -168 266 0
17 40 -185 0
-48 -77 210 0
-36 196 -220 0
-120 167 268 0
-13 27 -48 0
-3 72 198 0
-44 -196 251 0
112 138 164 0
-220 256 -265 0
79 -89 137 0
39 -68 205 0
52 -124 -172 0
109 -199 -255 0
-11 117 263 0
21 155 207 0
11 38 233 0
-30 68 254 0
108 157 230 0
181 201 -226 0
79 -83 -118 0
99 172 180 0
53 72 242 0
-152 -159 185 0
-65 124 156 0
162 205 223 0
-116 140 -145 0
135 -201 -266 0
-123 192 268 0
228 -255 -274 0
-20 186 -269 0
49 53 -75 0
39 -57 184 0
207 212 259 0
32 -170 -251 0
-59 100 275 0
28 34 264 0
-79 241 -266 0
-106 -135 219 0
86 -192 199 0
-66 -253 -260 0
10 152 218 0
72 88 106 0
36 115 181 0
-99 109 -206 0
-24 -91 -127 0
97 240 250 0
-39 163 231 0
62 151 160 0
4 -193 -204 0
90 113 209 0
100 -142 -154 0
100 -172 -197 0
21 -36 115 0
139 -189 262 0
76 120 196 0
-7 -168 208 0
47 238 245 0
-205 -229 -252 0
-14 -58 108 0
150 -166 -245 0
-45 85 -244 0
-130 -205 244 0
-21 -112 238 0
63 -124 163 0
49 -223 261 0
13 -101 -226 0
-6 -141 -168 0
-33 -173 184 0
-14 -59 -78 0
5 189 -221 0
-36 -72 155 0
11 176 245 0
-164 183 -209 0
-48 93 -262 0
-64 -273 -274 0
73 -188 230 0
82 -246 267 0
-74 131 163 0
17 -79 -127 0
45 -117 243 0
-56 126 183 0
-87 103 250 0
-27 -75 -196 0
139 148 223 0
-26 -166 -253 0
-82 -83 -229 0
-23 -30 -197 0
9 -23 -108 0
204 242 -246 0
-64 199 -262 0
29 66 -90 0
-169 -178 -253 0
-18 -23 161 0
-75 119 207 0
72 -234 254 0
-62 228 -261 0
-181 -240 274 0
155 186 192 0
-94 203 -274 0
-99 -178 -248 0
40 92 237 0
16 -169 -216 0
183 -266 -276 0
-36 -76 256 0
2 -177 -258 0
28 -70 234 0
-57 -142 192 0
-40 -122 -145 0
34 -110 -137 0
71 -243 278 0
-81 -215 -269 0
32 -156 250 0
-52 -62 -274 0
25 -84 121 0
-214 -215 257 0
47 -85 118 0
75 136 161 0
-193 214 -217 0
13 68 -189 0
-51 120 273 0
-146 -196 -248 0
44 88 -163 0
-102 171 -181 0
59 129 -188 0
153 -203 247 0
-73 -185 -215 0
92 -154 197 0
-102 -161 -182 0
-87 225 240 0
-12 -51 -251 0
-115 124 -185 0
63 -194 -271 0
96 -108 114 0
-55 -88 -235 0
52 152 190 0
104 154 216 0
-7 -43 -80 0
88 -221 -274 0
9 -53 -167 0
146 -161 -233 0
2 -226 268 0
-20 78 -125 0
203 214 -257 0
72 104 236 0
28 29 -214 0
84 -111 -119 0
-105 136 263 0
-177 -183 229 0
-58 -92 -131 0
-86 152 -165 0
-37 -178 -203 0
39 -113 117 0
135 -224 -237 0
-34 -258 269 0
-58 -134 158 0
-67 -200 -275 0
-70 152 -211 0
-32 -120 -162 0
-2 145 150 0
-23 56 -274 0
-15 -87 182 0
-10 -89 -97 0
18 116 212 0
-5 -69 -104 0
80 -216 -227 0
11 174 191 0
22 -117 -193 0
70 73 186 0
-195 -212 214 0
-3 132 171 0
40 -139 -272 0
38 -158 -255 0
24 -30 -186 0
142 150 -223 0
-34 -201 -205 0
-39 -252 253 0
3 33 217 0
144 196 264 0
-60 -78 235 0
36 -66 -138 0
17 113 204 0
45 124 138 0
145 195 -203 0
10 -28 251 0
61 -204 -228 0
-69 -228 248 0
69 128 267 0
47 -205 -270 0
110 142 146 0
-20 -123 206 0
39 -135 156 0
-3 210 259 0
-178 217 -222 0
30 -51 212 0
96 264 -268 0
-28 -34 -255 0
3 12 -28 0
16 17 130 0
-35 -109 -133 0
-27 -127 189 0
6 -140 -214 0
31 73 -98 0
104 111 -146 0
47 48 -122 0
44 -126 175 0
53 -213 259 0
10 -98 -253 0
48 99 159 0
46 -57 150 0
-31 206 -262 0
-90 -129 236 0
202 -214 278 0
34 100 220 0
26 -59 92 0
37 -210 -224 0
71 105 243 0
-71 -178 -186 0
132 156 -185 0
157 -237 -263 0
18 -229 -275 0
-72 -192 255 0
32 -104 150 0
52 99 -217 0
45 -223 -232 0
16 69 217 0
-46 -72 87 0
74 -151 -190 0
-172 -231 -242 0
-11 221 -227 0
44 128 -179 0
16 111 -141 0
38 183 253 0
218 -234 272 0
-28 55 206 0
-4 86 -247 0
-110 -147 -188 0
28 -44 254 0
-16 -33 -63 0
-47 -90 170 0
91 119 130 0
6 34 -46 0
-5 -65 208 0
77 -78 -265 0
14 -85 153 0
50 231 263 0
20 62 180 0
47 188 211 0
-13 33 198 0
-124 -180 -204 0
35 -127 184 0
63 -156 -249 0
16 18 -162 0
-145 -206 238 0
13 51 -213 0
31 -132 -209 0
-88 142 189 0
66 112 -266 0
104 -254 273 0
166 -226 265 0
-190 -216 -250 0
116 -264 268 0
-5 14 -55 0
89 195 -232 0
42 -129 -233 0
49 75 -204 0
-38 -137 -162 0
48 -81 186 0
80 89 -106 0
-86 94 117 0
-12 16 70 0
-31 147 207 0
-60 61 -213 0
60 118 -268 0
13 -199 239 0
-85 123 242 0
33 -37 -80 0
73 -103 273 0
26 93 171 0
17 237 -278 0
-1 66 -265 0
1 114 145 0
-77 -115 225 0
-41 -70 267 0
-105 138 173 0
144 -147 268 0
96 246 263 0
86 -131 -136 0
74 186 -259 0
57 -111 150 0
99 -137 -172 0
-75 -76 187 0
109 -154 -158 0
107 109 115 0
62 127 196 0
9 207 264 0
112 -127 -135 0
-7 107 119 0
36 214 234 0
104 153 203 0
123 -129 -137 0
189 -194 -263 0
103 167 187 0
85 -156 273 0
-46 105 181 0
-51 -132 -196 0
15 -151 183 0
-48 54 -215 0
-145 193 271 0
-35 -87 -148 0
2 -94 -161 0
-34 -147 180 0
83 -101 242 0
-30 -70 95 0
-69 97 222 0
11 -41 -136 0
38 -246 -274 0
167 -174 -190 0
39 89 -115 0
51 210 275 0
-51 72 220 0
102 -134 -195 0
-48 228 -246 0
198 220 -238 0
-66 -146 -181 0
-116 167 261 0
64 80 275 0
71 163 -227 0
102 157 211 0
33 208 240 0
94 136 172 0
43 -99 148 0
121 -124 195 0
37 -198 -249 0
-42 -159 -215 0
-58 97 168 0
-160 200 244 0
29 64 -119 0
-96 111 -244 0
84 103 164 0
52 -117 -190 0
-92 139 254 0
40 -202 -250 0
37 163 -229 0
44 -47 272 0
-14 147 245 0
109 128 -167 0
79 95 -149 0
71 196 -249 0
133 208 -216 0
-7 125 -270 0
-49 -57 205 0
-9 12 -259 0
-71 -156 195 0
48 151 158 0
-72 122 -172 0
-48 111 119 0
60 -90 99 0
75 149 -168 0
-107 -156 -219 0
15 76 -155 0
41 -98 -175 0
-15 -58 164 0
-34 -233 274 0
72 87 -241 0
-58 215 -270 0
-90 102 160 0
-17 -137 273 0
86 -145 154 0
45 68 167 0
-199 -255 -273 0
15 247 -255 0
178 202 242 0
50 -55 161 0
31 -101 -189 0
-82 -181 214 0
181 186 -191 0
49 -144 173 0
-184 -238 -277 0
-90 157 172 0
23 -127 255 0
10 21 212 0
37 146 -265 0
-79 -233 -245 0
29 -59 -255 0
20 204 260 0
-223 249 -268 0
4 6 -45 0
67 100 -171 0
-23 -139 143 0
-56 177 193 0
36 38 174 0
14 214 224 0
-36 -162 171 0
97 144 -163 0
82 118 -121 0
24 -166 262 0
-9 47 94 0
42 172 -228 0
27 150 272 0
-186 196 -214 0
-24 48 90 0
28 70 -139 0
100 -101 236 0
28 158 277 0
73 89 217 0
141 200 230 0
-15 -135 264 0
130 145 236 0
177 202 244 0
-115 239 -243 0
17 -44 253 0
-13 -108 135 0
15 -94 219 0
54 -205 242 0
38 -140 196 0
-59 132 187 0
79 -231 263 0
25 -31 61 0
-120 -213 -270 0
3 105 255 0
39 -98 152 0
10 -47 -183 0
118 -150 -170 0
-40 -150 -197 0
112 -148 245 0
-46 -189 224 0
-7 -152 267 0
108 169 -177 0
57 61 -169 0
157 240 256 0
-25 118 194 0
-40 -44 136 0
6 191 -200 0
123 -176 207 0
-67 -77 -199 0
-66 -109 126 0
11 118 -201 0
56 -124 214 0
-43 193 234 0
179 227 -274 0
76 -242 264 0
-71 -103 230 0
60 85 166 0
-70 -184 -272 0
70 149 -211 0
154 -203 271 0
20 -214 240 0
54 -243 273 0
-185 202 -250 0
65 -100 182 0
28 -195 -204 0
-175 -197 -226 0
121 123 204 0
3 -119 141 0
-102 -221 273 0
-126 186 -248 0
-19 31 -209 0
-90 -179 -248 0
121 213 -251 0
-112 116 262 0
165 -171 -231 0
-18 -138 151 0
108 205 -236 0
20 84 -162 0
-103 112 264 0
17 39 -210 0
-52 -178 257 0
-55 115 -200 0
-65 -108 -175 0
79 91 -161 0
12 121 171 0
13 26 177 0
-38 121 -223 0
154 159 -165 0
78 -96 234 0
61 -220 261 0
-8 99 -104 0
-26 -36 211 0
-98 166 -232 0
43 77 163 0
-178 212 276 0
-198 214 -222 0
-73 150 -154 0
-85 -192 272 0
26 124 -155 0
108 169 219 0
125 245 267 0
-23 -167 200 0
-40 -237 262 0
6 -187 -264 0
-37 -84 123 0
-82 -99 -107 0
27 161 -240 0
118 -184 -208 0
26 69 -234 0
-43 62 169 0
-78 91 277 0
86 113 249 0
-95 109 -178 0
116 -128 231 0
169 182 -197 0
53 -155 243 0
-97 -140 -273 0
-89 -197 -242 0
-104 183 -270 0
-138 197 -243 0
23 -251 258 0
62 -224 229 0
200 -210 252 0
19 25 -225 0
-19 -129 136 0
-9 -122 -158 0
-81 257 266 0
44 -192 244 0
172 -203 -224 0
187 -238 258 0
-17 -48 -202 0
48 -196 -228 0
33 165 198 0
81 -165 -264 0
-117 -138 238 0
180 222 267 0
-13 -197 -239 0
-182 -251 263 0
2 -36 -92 0
26 155 250 0
-5 -187 215 0
-52 122 -128 0
-189 -229 -277 0
4 -134 194 0
-18 -165 -266 0
77 -84 92 0
-107 -122 241 0
35 -71 189 0
67 -107 -246 0
66 234 260 0
-167 -176 -180 0
-24 114 -116 0
34 -91 -247 0
-90 142 180 0
-6 162 -223 0
-27 36 196 0
104 -243 -263 0
-44 -196 -227 0
-130 161 -205 0
-164 215 -267 0
-89 140 243 0
-135 -199 -268 0
-21 93 278 0
-38 213 267 0
61 -77 -191 0
-57 -66 225 0
-26 161 -259 0
69 -141 -274 0
-63 -86 -260 0
-92 93 247 0
187 189 -221 0
89 -244 -259 0
-221 -255 261 0
169 -205 -272 0
27 114 -230 0
169 269 -275 0
-18 -135 228 0
-135 205 265 0
-5 -66 -181 0
-64 -230 -276 0
-68 -241 -259 0
-81 105 224 0
-30 -162 -256 0
88 142 208 0
-62 162 -233 0
-70 156 182 0
-54 -60 -87 0
195 218 -254 0
-34 143 240 0
-175 181 240 0
-81 -142 224 0
-24 -160 181 0
-58 -228 -270 0
-18 -26 235 0
116 -228 -236 0
-168 197 204 0
55 139 -269 0
39 -99 258 0
72 206 254 0
171 233 -254 0
-52 176 -206 0
80 83 -248 0
-31 -53 -270 0
11 21 -110 0
195 -265 267 0
-38 -225 -264 0
11 47 103 0
17 63 -266 0
-84 -235 252 0
111 112 -215 0
-132 135 -150 0
-73 -126 -152 0
13 88 151 0
11 -64 247 0
-125 169 193 0
70 126 241 0
118 -194 259 0
32 -196 244 0
-41 84 -184 0
-3 116 -166 0
-15 43 253 0
82 -118 -167 0
-21 -96 -185 0
-19 72 118 0
39 -70 173 0
-102 -123 -232 0
-148 171 -195 0
-108 -148 -251 0
7 163 191 0
-34 143 -225 0
59 102 -162 0
115 201 204 0
29 -36 266 0
-50 -124 -176 0
-7 17 97 0
-14 -216 223 0
38 -101 215 0
8 -14 218 0
-109 -165 -240 0
16 134 261 0
35 -86 193 0
-12 -224 226 0
33 -88 -218 0
8 81 135 0
85 -182 -228 0
-67 -150 -184 0
18 -191 277 0
96 -157 -205 0
32 -50 -61 0
68 -104 115 0
37 222 275 0
-151 170 -204 0
-157 232 -266 0
-1 63 -128 0
123 155 -213 0
146 217 251 0
147 -215 253 0
26 -37 -157 0
-50 -53 98 0
87 186 -272 0
125 147 171 0
32 96 -114 0
-60 97 158 0
-22 -91 -233 0
126 132 156 0
36 116 146 0
-92 -179 -274 0
56 -85 -128 0
43 145 196 0
-144 146 243 0
-5 -83 -214 0
77 -116 -200 0
-119 137 -219 0
8 -41 188 0
96 -124 160 0
-174 -192 -271 0
-33 -96 -122 0
-51 -145 -165 0
-120 -158 -259 0
-106 -111 -119 0
104 110 -248 0
54 261 -275 0
-75 183 -262 0
28 69 97 0
-120 -149 252 0
-113 117 210 0
-32 -116 231 0
-9 -48 86 0
34 49 115 0
13 50 85 0
-80 -140 -171 0
170 210 260 0
-31 118 -276 0
3 172 -239 0
99 177 -207 0
64 -190 224 0
-13 37 85 0
-49 127 -241 0
-81 189 -242 0
-88 166 -277 0
42 64 263 0
48 -74 -257 0
-54 240 -274 0
-7 -31 195 0
18 -87 -140 0
-67 140 -149 0
-64 -135 254 0
3 -69 -108 0
197 -244 -263 0
-56 172 227 0
-118 175 -250 0
-14 -200 217 0
40 -197 -217 0
40 121 -220 0
-95 109 -263 0
-20 -150 -210 0
2 -101 212 0
179 -180 -236 0
155 -239 -246 0
-15 81 111 0
84 181 271 0
6 223 -242 0
-167 -180 272 0
35 -132 -158 0
67 166 -248 0
8 21 -115 0
-34 244 -278 0
-78 -84 159 0
-99 -126 -233 0
-129 -152 -258 0
-18 -20 48 0
144 159 196 0
-22 200 263 0
68 95 100 0
-97 190 197 0
12 39 67 0
75 -181 199 0
-8 -21 -113 0
-72 168 -274 0
-102 222 253 0
-21 32 170 0
-47 71 -246 0
137 -212 247 0
-145 146 -246 0
-102 -216 -253 0
-119 133 -175 0
-13 22 78 0
66 -105 -153 0
22 -226 -256 0
84 93 108 0
27 -55 275 0
-152 259 -265 0
-143 155 175 0
-19 193 199 0
-104 107 122 0
13 173 178 0
-212 -244 278 0
-9 35 75 0
131 -256 273 0
17 -83 -107 0
-61 72 -88 0
