p cnf 249 1061
108 -195 -228 0
-104 -201 -236 0
150 229 -233 0
-25 36 -194 0
-19 -26 187 0
81 -91 -112 0
67 134 222 0
103 -185 -216 0
63 84 187 0
62 -206 248 0
-21 82 -225 0
75 -142 181 0
-155 -205 247 0
-99 153 -205 0
48 49 -211 0
18 23 122 0
-21 -216 230 0
-56 -218 -230 0
-127 165 -170 0
-30 125 157 0
5 70 -188 0
-44 86 204 0
38 201 219 0
7 32 -163 0
24 95 214 0
50 247 -249 0
54 187 -205 0
-26 159 214 0
-19 -78 166 0
16 120 -129 0
-52 67 92 0
15 197 -248 0
-31 65 136 0
-105 -121 -175 0
65 169 -215 0
21 -86 190 0
-62 -196 -245 0
92 -152 -173 0
107 192 213 0
41 86 -179 0
-97 182 -225 0
-146 180 224 0
17 -67 -115 0
144 155 -233 0
-80 84 -215 0
49 141 247 0
-103 -174 244 0
4 55 184 0
31 -156 -167 0
-26 -47 177 0
-6 71 -234 0
-35 134 168 0
5 72 218 0
-67 -143 175 0
-192 -217 -247 0
96 138 -224 0
3 75 -151 0
-86 87 -203 0
10 -159 200 0
-39 -75 150 0
30 76 -123 0
46 -134 -220 0
-77 85 214 0
-124 -144 -233 0
-30 -32 123 0
78 86 -189 0
23 164 207 0
-16 57 192 0
-101 -133 -143 0
150 -183 202 0
57 -67 95 0
17 -30 92 0
-31 102 128 0
56 205 243 0
93 97 -118 0
-38 -104 -145 0
128 163 214 0
-88 -181 247 0
-38 135 -224 0
-76 150 184 0
133 223 235 0
11 -34 -77 0
42 -205 -221 0
98 130 231 0
110 -192 -232 0
-124 212 249 0
1 -169 -227 0
-17 -86 -127 0
16 99 208 0
-74 187 213 0
-37 107 124 0
91 -106 -208 0
-13 26 118 0
9 -154 159 0
-141 167 -180 0
-199 200 201 0
-120 157 -180 0
-33 -202 218 0
133 202 -221 0
96 -114 -194 0
20 162 -203 0
7 66 231 0
-199 -210 227 0
-38 110 229 0
-17 26 107 0
-111 115 -203 0
-222 -236 247 0
-19 32 -91 0
3 -46 90 0
37 153 229 0
169 173 -188 0
7 95 177 0
-29 -117 123 0
-8 -54 -248 0
-75 76 246 0
-27 137 -149 0
38 230 -243 0
61 -63 -131 0
12 108 -170 0
19 -20 -180 0
107 -141 -190 0
22 -91 -164 0
136 -164 -243 0
-3 -107 247 0
-76 96 244 0
28 71 -204 0
-48 -103 238 0
-64 117 -246 0
119 -162 164 0
-1 -76 213 0
-30 56 -77 0
121 -181 193 0
-104 140 196 0
70 172 -227 0
-102 -135 228 0
-65 91 192 0
-10 -19 -203 0
31 136 221 0
-75 107 221 0
-27 -106 -137 0
96 114 146 0
-31 -98 179 0
-77 -144 -172 0
-56 -123 126 0
-37 77 114 0
-7 91 121 0
-21 176 -222 0
11 -30 -159 0
59 -187 231 0
-27 -112 118 0
-85 108 -166 0
-38 182 239 0
-48 -114 -234 0
100 126 -207 0
53 -151 241 0
22 -60 163 0
164 174 -191 0
-23 -157 -181 0
-14 -118 -162 0
66 -122 -181 0
11 -12 14 0
2 75 -168 0
-57 175 -249 0
50 87 -156 0
-83 -117 138 0
-12 49 134 0
89 135 -223 0
-173 -187 -189 0
66 89 -124 0
19 -142 -240 0
-13 -113 -186 0
22 31 113 0
-40 196 -212 0
-20 -157 210 0
-47 64 246 0
-72 -216 -223 0
-28 143 -231 0
-114 -132 -200 0
5 31 -60 0
56 -64 73 0
-32 99 -166 0
-59 173 184 0
-17 79 -133 0
74 123 161 0
-84 130 142 0
40 102 225 0
-53 196 201 0
34 -188 -209 0
-34 152 156 0
-92 -135 -153 0
4 -57 -246 0
81 -140 181 0
103 -155 -181 0
16 99 -242 0
186 -192 -247 0
169 -172 -186 0
42 -79 172 0
-39 162 -188 0
7 16 161 0
-58 168 243 0
-89 170 249 0
-37 -112 115 0
-85 -167 187 0
-68 105 229 0
100 105 245 0
160 170 -223 0
61 213 216 0
207 230 245 0
110 -222 238 0
-11 -155 -158 0
7 -161 239 0
75 -92 172 0
-42 -92 -130 0
-127 206 -242 0
-74 136 -231 0
-10 -176 240 0
89 104 -127 0
-9 66 -190 0
-99 214 249 0
85 -145 207 0
223 -231 235 0
14 -150 -209 0
-75 -76 -161 0
44 111 154 0
33 -88 -114 0
49 -157 -192 0
45 213 244 0
-29 -149 -242 0
-4 -73 -80 0
-135 -138 142 0
111 181 201 0
-170 -180 -201 0
-10 144 244 0
93 136 -241 0
128 161 180 0
-48 71 -242 0
-61 183 191 0
43 -113 -237 0
-65 -70 -241 0
-8 24 -79 0
-52 -102 -196 0
179 -211 -226 0
-33 -146 213 0
102 122 236 0
-89 145 222 0
-29 49 -184 0
216 -217 -238 0
-33 -196 232 0
-38 104 153 0
-33 35 229 0
-143 177 -211 0
150 205 209 0
-52 -68 -209 0
-67 133 -201 0
10 40 -142 0
19 -210 243 0
118 -134 208 0
122 143 -198 0
1 199 -209 0
-91 -146 -156 0
93 132 -216 0
6 47 -237 0
50 -156 227 0
-80 179 204 0
92 -214 236 0
-91 -113 -155 0
-8 -47 106 0
-17 100 244 0
6 -7 90 0
-83 -117 203 0
-14 -138 220 0
25 -133 -166 0
26 121 -245 0
-1 -10 246 0
141 179 242 0
41 -200 236 0
-124 228 246 0
-62 73 163 0
-42 -58 -91 0
-36 145 225 0
-2 150 239 0
-5 7 211 0
13 199 237 0
98 -173 -202 0
-146 176 234 0
-56 94 131 0
-105 145 -169 0
-63 -112 230 0
-62 -102 235 0
-65 71 -214 0
61 -71 -225 0
28 161 -247 0
-7 -108 197 0
-118 155 183 0
88 -106 122 0
89 -95 -239 0
133 162 -193 0
-46 -150 -186 0
-11 75 -163 0
69 -97 187 0
-29 34 157 0
-102 111 148 0
109 140 200 0
43 54 -59 0
-92 -226 231 0
-206 -235 247 0
-88 129 -161 0
-143 190 -191 0
-89 -100 -243 0
26 105 209 0
150 153 163 0
69 -177 188 0
3 -10 -204 0
-28 -82 -174 0
125 171 208 0
131 200 220 0
105 -133 -225 0
6 -68 151 0
113 -145 227 0
-104 151 -165 0
11 -123 -159 0
-101 -142 166 0
59 -94 139 0
18 -117 -247 0
105 -145 -244 0
-29 59 -209 0
25 36 208 0
-2 -9 221 0
-122 -144 239 0
2 -62 -176 0
-3 -58 -71 0
-20 24 -79 0
98 221 -247 0
-52 -191 -240 0
34 -99 -157 0
121 -129 -223 0
-72 -92 111 0
75 -123 232 0
63 -89 -239 0
-29 -59 -175 0
119 -132 -240 0
60 81 -125 0
82 -101 229 0
-11 148 -198 0
52 84 186 0
94 179 205 0
3 98 137 0
155 156 -211 0
-1 51 218 0
-59 -60 -238 0
1 -112 207 0
69 -158 -245 0
-87 174 212 0
27 -65 242 0
37 -159 178 0
82 -147 169 0
-28 144 -178 0
-46 117 -121 0
-21 66 -97 0
-64 90 -124 0
-2 -186 228 0
-62 -65 110 0
-59 -73 113 0
134 213 -249 0
133 162 239 0
10 -86 -88 0
-49 106 174 0
-13 101 -202 0
-47 133 -237 0
147 -170 231 0
-63 125 232 0
12 -16 35 0
-28 -170 -176 0
50 -127 -176 0
-101 -113 -184 0
18 38 -57 0
119 -182 244 0
6 -54 -104 0
54 139 -163 0
80 98 -140 0
-4 -53 -193 0
6 22 -191 0
40 -67 -120 0
-57 -215 -225 0
-59 152 211 0
-40 81 -161 0
82 99 -112 0
156 171 240 0
31 111 -181 0
-30 -68 -99 0
158 164 -206 0
4 -132 142 0
-67 164 -221 0
-26 144 -158 0
27 134 -147 0
9 -134 216 0
143 182 215 0
-52 -103 156 0
-69 185 230 0
81 -120 213 0
-22 -170 -210 0
9 -22 157 0
43 -71 -183 0
-23 107 129 0
83 -119 152 0
-112 161 173 0
-3 164 -214 0
-82 141 168 0
178 -218 228 0
-100 108 -202 0
-81 -234 244 0
44 96 -109 0
8 -62 99 0
47 -212 232 0
-93 193 229 0
-69 -73 -128 0
179 238 -240 0
39 -52 64 0
48 65 142 0
-185 211 222 0
33 144 -195 0
205 -220 223 0
-16 -43 106 0
-99 135 137 0
23 137 220 0
-63 -192 -247 0
-89 -106 170 0
41 196 229 0
14 -195 219 0
116 -182 200 0
-38 -90 -154 0
-129 165 177 0
123 -188 -207 0
78 -113 -122 0
-180 -208 -241 0
-102 103 149 0
56 68 -111 0
-67 -88 -235 0
135 167 -233 0
18 118 177 0
66 204 220 0
-45 -159 233 0
5 169 -173 0
-61 -211 -247 0
-23 91 220 0
-4 -45 197 0
99 -223 236 0
46 -128 204 0
-1 14 232 0
-22 -108 129 0
16 -87 -183 0
-124 -125 156 0
118 194 -206 0
-104 -144 183 0
108 156 237 0
-48 -192 215 0
-109 -176 196 0
92 131 163 0
4 156 -199 0
99 -124 201 0
22 101 180 0
106 235 -236 0
-34 -144 -188 0
214 -229 245 0
144 231 242 0
-23 -148 -213 0
55 65 104 0
-3 164 225 0
130 195 -214 0
-2 190 -211 0
17 -149 193 0
-65 -85 116 0
-21 -81 -113 0
110 133 142 0
-103 165 213 0
-9 37 40 0
-69 -135 -145 0
-103 -152 -209 0
60 -129 -199 0
88 132 203 0
-29 95 122 0
29 -130 133 0
-47 -94 -242 0
-124 194 235 0
-123 168 191 0
123 -190 -195 0
-149 176 225 0
117 -160 -182 0
84 -111 -149 0
-61 95 98 0
-62 -66 247 0
87 -154 160 0
-37 195 217 0
-115 229 237 0
92 154 -155 0
-54 -76 232 0
-91 105 217 0
50 -51 245 0
-65 -74 -129 0
-173 191 218 0
16 -86 -229 0
-80 -141 -231 0
57 174 243 0
-5 130 219 0
6 -11 202 0
-151 209 223 0
41 72 76 0
-34 -59 -225 0
-38 158 189 0
-35 216 230 0
-5 -151 223 0
-190 194 -209 0
154 189 203 0
54 -190 211 0
38 -125 138 0
-45 -117 172 0
-164 167 241 0
-70 -90 126 0
74 101 -142 0
30 152 -245 0
37 67 109 0
-68 84 -113 0
-100 214 221 0
-9 -79 168 0
53 101 -120 0
-32 130 173 0
52 -60 -62 0
18 213 228 0
24 50 126 0
-134 -141 -148 0
121 -173 -205 0
53 197 -202 0
56 133 175 0
61 -117 -121 0
-85 101 189 0
95 128 212 0
105 226 -236 0
-37 73 133 0
82 -83 131 0
-52 -76 -134 0
10 -37 113 0
-49 -135 213 0
-39 -150 225 0
30 -41 -242 0
46 -215 -240 0
-22 147 175 0
63 127 134 0
-67 -120 211 0
32 -61 161 0
4 37 58 0
18 -28 -72 0
-67 148 200 0
37 -116 -212 0
-66 105 -164 0
55 62 168 0
-55 -134 224 0
65 -108 -196 0
52 -77 -237 0
-61 -166 206 0
38 -95 -116 0
-14 -162 -199 0
146 157 216 0
-28 -69 215 0
-121 -125 226 0
69 128 156 0
67 87 -182 0
80 -83 -160 0
33 200 -239 0
-185 -195 234 0
-91 -176 -215 0
28 -94 150 0
-4 -25 244 0
101 -164 185 0
76 -173 -216 0
-32 135 143 0
-1 -24 87 0
-63 -96 226 0
103 116 241 0
28 -85 186 0
78 129 -200 0
16 63 -190 0
43 -67 120 0
5 97 -144 0
-22 162 -197 0
-59 -99 186 0
109 -164 207 0
-73 -89 -132 0
-184 -191 -226 0
42 -48 -199 0
-6 -96 165 0
6 27 -118 0
-155 180 244 0
-106 -126 -229 0
4 51 -146 0
-23 -34 169 0
-6 -21 110 0
-51 -76 -158 0
-10 -17 -23 0
98 -166 -201 0
103 -142 -249 0
-40 -125 -173 0
-183 -229 -236 0
78 -108 210 0
-109 -113 246 0
59 -85 175 0
40 -87 160 0
26 46 199 0
-3 -134 168 0
-75 102 113 0
41 123 -230 0
-73 -188 -209 0
-9 -151 -210 0
-16 18 -196 0
80 -141 163 0
11 -109 204 0
15 76 80 0
40 -153 224 0
6 36 150 0
17 156 182 0
111 125 -240 0
115 184 221 0
-96 187 219 0
130 161 246 0
-97 -187 -203 0
62 79 -233 0
-200 -218 -248 0
6 96 130 0
66 175 190 0
-30 126 -213 0
67 210 248 0
-90 169 235 0
127 -129 -204 0
30 -49 -163 0
-27 -197 -246 0
9 -85 164 0
-108 194 -248 0
12 -69 -191 0
-2 174 199 0
65 95 -238 0
52 -146 -224 0
174 -178 209 0
8 -156 205 0
60 104 228 0
-117 -140 -225 0
30 -94 -198 0
48 -123 223 0
171 -223 -239 0
42 -101 -194 0
114 -212 246 0
41 -180 239 0
26 -40 -65 0
-134 -166 -232 0
-31 -119 -126 0
-65 73 -185 0
132 -166 -240 0
-168 188 195 0
-22 107 143 0
-127 -174 -208 0
-114 135 143 0
-54 -92 156 0
-25 43 -57 0
81 -113 -217 0
88 126 -182 0
-68 131 -237 0
34 130 229 0
50 88 -240 0
20 121 -147 0
35 -67 -145 0
-34 -226 236 0
27 85 -226 0
-79 149 169 0
-122 -169 194 0
-24 -107 -219 0
-127 172 -228 0
-53 196 -208 0
-19 -36 -208 0
-75 -205 208 0
-33 42 -119 0
-25 -40 138 0
23 -81 -170 0
30 -170 -183 0
-80 84 195 0
78 167 169 0
62 -122 246 0
14 -97 -191 0
37 125 170 0
-31 39 -162 0
21 148 -149 0
104 -212 -217 0
87 -161 -196 0
46 229 230 0
-134 -164 210 0
-85 -109 133 0
-36 45 90 0
-17 -33 235 0
58 -93 193 0
-52 -61 -158 0
-151 -164 -220 0
5 -160 176 0
129 -141 -182 0
-13 -29 -45 0
-82 156 -204 0
38 -127 134 0
1 22 144 0
-15 83 233 0
13 173 -195 0
-99 -167 245 0
11 101 -185 0
3 107 189 0
-34 -149 -163 0
-116 -199 -227 0
-69 -85 -208 0
-86 -103 172 0
-55 -216 -233 0
110 190 -212 0
44 49 -244 0
129 130 -216 0
32 -124 240 0
30 216 241 0
186 192 203 0
-54 -145 166 0
25 -97 126 0
-58 -156 196 0
36 108 215 0
-46 -177 -237 0
-44 115 182 0
3 -16 -102 0
-64 -206 227 0
-17 -85 124 0
99 -183 -224 0
-23 -44 144 0
159 203 -208 0
117 -175 -191 0
-8 73 -120 0
-29 -34 -208 0
-40 126 -156 0
40 -107 233 0
148 207 -244 0
-132 194 -222 0
87 -211 246 0
22 24 209 0
123 184 -232 0
-68 -85 91 0
-80 115 -224 0
-4 -134 210 0
-145 -245 249 0
-46 184 186 0
91 -97 -189 0
160 -182 212 0
171 233 -244 0
20 21 106 0
83 116 191 0
151 -156 -197 0
-16 55 138 0
13 153 -167 0
-52 169 194 0
96 -140 -217 0
140 -203 229 0
91 -106 -147 0
89 -197 212 0
10 -91 186 0
-60 -111 -211 0
-2 45 209 0
12 172 -205 0
45 99 154 0
-11 -101 222 0
-7 -98 216 0
-132 208 237 0
107 127 -132 0
48 118 187 0
-31 -52 -76 0
-37 -47 204 0
98 -205 242 0
98 -202 -203 0
-33 -144 162 0
135 158 -165 0
58 125 147 0
43 -78 226 0
34 -159 -247 0
-4 196 202 0
-56 -132 -184 0
199 221 -240 0
50 -87 -171 0
76 -96 213 0
-50 73 92 0
-49 52 -213 0
-44 -171 249 0
137 -172 225 0
66 -182 206 0
-27 -231 248 0
-32 -38 205 0
76 125 231 0
-50 -123 -205 0
84 238 -239 0
90 161 -210 0
-103 -124 -197 0
-12 37 -73 0
18 -46 152 0
-28 -75 161 0
-13 -104 145 0
63 199 228 0
-38 -138 -155 0
64 111 -131 0
47 -169 195 0
27 81 132 0
-123 -175 -189 0
24 158 -226 0
-67 132 -182 0
67 -186 201 0
-10 -25 -172 0
-5 -66 114 0
-91 -188 -209 0
-5 -52 101 0
140 -219 227 0
24 37 -112 0
-51 193 247 0
-58 -171 -196 0
-6 -17 118 0
-42 186 234 0
1 43 -222 0
14 171 -197 0
-66 -80 -145 0
130 158 238 0
55 190 247 0
11 -28 -154 0
102 -116 167 0
-33 -77 157 0
118 -146 -147 0
79 -143 -170 0
-132 -179 -247 0
-27 -151 235 0
-112 184 222 0
-184 216 248 0
147 171 173 0
80 119 -192 0
-61 -71 190 0
-103 -191 -242 0
-4 85 -195 0
-24 -40 -178 0
72 90 -209 0
67 120 122 0
-14 -142 -199 0
-15 93 -99 0
-12 -122 -227 0
-159 161 -195 0
-6 207 -213 0
-76 -158 231 0
-41 63 115 0
-13 -165 -224 0
154 -166 222 0
-4 118 174 0
-27 120 -179 0
15 -27 -36 0
-135 170 -199 0
-87 -124 150 0
13 -134 190 0
-98 174 210 0
30 184 -190 0
39 -184 -205 0
-47 111 115 0
-93 -173 -245 0
2 59 101 0
85 154 230 0
137 204 240 0
36 -39 -141 0
-5 74 95 0
-3 -151 -236 0
-23 -148 174 0
-49 93 105 0
48 135 -215 0
144 149 -150 0
-66 68 -120 0
-25 93 -108 0
-46 -203 220 0
-69 96 -204 0
52 -53 -248 0
151 169 -204 0
-8 35 113 0
75 -100 160 0
158 -182 -223 0
-127 -216 -242 0
16 -46 80 0
116 -130 160 0
33 -66 -184 0
90 -123 222 0
-36 126 -179 0
-4 74 221 0
-57 204 -219 0
163 185 -243 0
-145 -170 -212 0
157 184 -205 0
-109 -169 212 0
-75 -128 246 0
119 204 -216 0
117 -196 242 0
-75 135 -177 0
39 -42 70 0
42 54 89 0
-33 -65 240 0
-16 72 -147 0
-67 86 183 0
-8 -88 -187 0
151 172 -228 0
108 -171 -244 0
186 207 228 0
-33 99 -211 0
-86 133 208 0
50 -142 -159 0
11 37 -225 0
54 -106 226 0
24 -27 87 0
169 189 -237 0
51 112 -220 0
108 183 -202 0
-163 -218 226 0
55 128 -149 0
26 111 -165 0
-30 85 160 0
78 202 -224 0
-39 123 233 0
11 -36 -61 0
-61 141 142 0
-25 160 -209 0
27 -115 -116 0
-49 123 202 0
-104 -146 -214 0
-34 43 100 0
-89 156 -232 0
115 -223 249 0
75 -81 149 0
110 188 238 0
-14 -105 -245 0
-7 165 -231 0
71 -189 204 0
16 90 168 0
147 194 -214 0
26 72 212 0
40 142 -221 0
-155 -234 236 0
-14 134 136 0
-34 101 177 0
59 196 -224 0
-126 -173 224 0
-10 141 -142 0
147 190 -208 0
-99 -123 -150 0
164 198 -223 0
129 -137 -221 0
-62 -131 -221 0
-83 98 202 0
50 77 -78 0
-42 137 -242 0
119 -204 -222 0
-17 -101 221 0
-31 -43 164 0
51 100 101 0
-86 -107 109 0
69 122 237 0
39 158 -247 0
-36 -109 130 0
20 69 164 0
4 -35 -230 0
78 -135 -187 0
158 207 249 0
-3 -168 221 0
-7 81 -222 0
-16 -97 111 0
56 162 214 0
-161 -183 -198 0
60 -153 -189 0
23 228 -230 0
-6 -123 -199 0
10 45 -232 0
183 -192 233 0
-7 -14 -59 0
-186 -208 -245 0
-18 34 96 0
-40 43 -87 0
-91 -161 186 0
134 -206 229 0
-148 -182 212 0
-26 185 -192 0
48 -105 -189 0
37 -72 -73 0
153 205 234 0
-114 186 189 0
-51 185 -238 0
-15 -94 132 0
-10 50 -160 0
-1 -11 76 0
43 -174 -178 0
-60 -196 -224 0
40 -145 186 0
-11 -171 -249 0
50 85 -130 0
-53 64 201 0
12 60 -116 0
102 109 -162 0
-182 207 229 0
77 -98 125 0
94 118 171 0
92 -119 -169 0
26 190 -198 0
52 -127 -224 0
122 133 242 0
-19 -117 135 0
-21 -146 197 0
-126 174 183 0
-65 -75 138 0
127 -168 -249 0
-120 -176 185 0
-54 -79 -167 0
-38 -114 166 0
66 145 -166 0
21 -46 -168 0
-2 -47 -72 0
13 112 180 0
109 198 -248 0
54 -121 153 0
45 122 156 0
-38 65 244 0
57 62 -165 0
39 85 126 0
15 -164 -230 0
-3 127 201 0
-21 95 186 0
-132 144 246 0
18 -48 -91 0
-109 131 225 0
96 102 246 0
105 -144 -241 0
5 61 193 0
-60 204 212 0
66 73 -120 0
60 68 70 0
-93 -95 236 0
-17 -75 105 0
36 86 126 0
89 109 137 0
60 -159 -164 0
15 -92 161 0
120 -130 247 0
-90 -156 223 0
109 -209 -230 0
62 -96 -109 0
-100 182 245 0
18 97 205 0
-13 87 207 0
141 -155 202 0
-43 -92 -119 0
-75 -197 240 0
-36 116 -174 0
-91 139 162 0
181 -228 -239 0
-32 -53 171 0
25 113 -179 0
17 61 122 0
166 -235 -247 0
-2 77 -178 0
16 -89 159 0
111 -171 -188 0
