p cnf 41 179
-3 30 -35 0
3 -15 34 0
-4 16 -35 0
29 33 -34 0
-18 -32 -33 0
-7 -10 -12 0
-20 -22 37 0
12 -13 -25 0
-2 -22 30 0
-5 8 37 0
8 -10 38 0
6 30 -38 0
-3 18 27 0
-5 26 32 0
22 -34 38 0
-7 40 -41 0
20 -22 41 0
-3 5 -21 0
-9 19 22 0
18 -23 34 0
-9 -25 29 0
14 -19 -34 0
16 18 -33 0
-11 -26 32 0
-4 -5 -16 0
-14 26 -40 0
11 18 40 0
-6 15 -23 0
4 -13 -34 0
3 -11 -20 0
21 -29 34 0
-5 8 29 0
13 -16 41 0
-2 -15 17 0
-11 -26 27 0
6 8 9 0
30 31 32 0
10 12 35 0
9 13 -26 0
3 13 -31 0
-2 32 -35 0
13 -25 30 0
15 23 30 0
-9 -25 -41 0
33 35 -39 0
-8 -15 16 0
-14 -23 38 0
-12 17 31 0
4 6 41 0
16 19 -39 0
-18 -19 21 0
-5 -25 35 0
-5 17 -31 0
-6 21 -31 0
19 -29 30 0
-3 -14 -32 0
15 18 36 0
-3 14 -35 0
-18 -28 -39 0
-2 -10 -26 0
14 -15 24 0
-27 -29 -35 0
7 -15 -36 0
-9 -30 -35 0
10 18 41 0
-33 -35 36 0
20 25 30 0
14 22 24 0
9 -19 33 0
4 19 -26 0
27 30 -37 0
-16 -28 -31 0
-8 14 -25 0
-8 13 34 0
-12 -21 -35 0
23 -26 38 0
17 -20 26 0
6 15 17 0
7 26 32 0
-1 -6 -20 0
-5 -9 -12 0
4 5 -29 0
21 -27 -39 0
-15 -18 -20 0
7 -28 33 0
19 24 -32 0
9 21 -39 0
-10 26 -35 0
2 -11 -27 0
4 -10 40 0
-22 -27 -30 0
-19 35 -39 0
-12 -21 -25 0
4 13 16 0
-7 -12 28 0
4 -8 13 0
9 -34 39 0
18 -20 -33 0
-16 -24 -37 0
-9 -11 -39 0
-18 23 -28 0
-6 -36 41 0
1 -3 -24 0
-3 -6 34 0
-25 -29 -36 0
6 -20 23 0
3 -8 34 0
1 23 -30 0
8 -24 35 0
12 29 37 0
-6 -22 -39 0
6 34 -35 0
10 12 32 0
23 35 37 0
-4 -25 33 0
-3 -23 -34 0
-1 -14 35 0
-2 -5 20 0
-4 -24 -25 0
11 -26 35 0
-8 28 32 0
23 26 34 0
-23 -27 -28 0
-14 -18 38 0
15 -21 -33 0
-8 -19 40 0
5 15 16 0
2 7 32 0
-1 15 -23 0
-2 15 18 0
-5 15 24 0
-7 25 27 0
5 -16 33 0
-7 15 22 0
15 -23 36 0
5 19 -36 0
4 -38 40 0
6 -8 -39 0
23 31 38 0
19 -31 36 0
23 26 38 0
-1 10 -24 0
-1 -8 -29 0
20 -26 -29 0
-21 -25 27 0
4 -16 -34 0
3 21 -39 0
10 26 29 0
-15 19 39 0
27 -29 -36 0
-2 10 -21 0
-6 -21 35 0
-1 24 -29 0
-7 29 -38 0
19 -21 -26 0
11 18 38 0
-10 18 20 0
9 -12 -26 0
-23 33 34 0
8 -15 -24 0
-13 -33 -40 0
18 -36 38 0
-12 -18 30 0
1 -3 -23 0
7 -18 30 0
18 -27 41 0
-5 -14 27 0
-8 -21 32 0
-29 33 41 0
-9 -13 -19 0
-30 31 33 0
-5 -30 40 0
-15 18 31 0
21 33 39 0
24 -29 30 0
-17 19 -30 0
14 -23 -29 0
6 -22 -29 0
-3 -23 -31 0
