p cnf 195 832
-83 -123 -162 0
-76 132 137 0
45 -126 173 0
54 69 171 0
10 49 50 0
-109 -140 185 0
-13 -19 35 0
-65 -107 -183 0
14 21 -66 0
-97 -100 -177 0
-53 167 191 0
-15 181 -183 0
85 -91 130 0
29 77 122 0
-42 -55 120 0
-64 104 -162 0
-48 161 -172 0
-7 -48 -60 0
-60 94 161 0
83 -86 -173 0
72 146 -173 0
-30 41 125 0
-52 -70 -88 0
-49 -92 159 0
-50 -78 119 0
-49 -91 111 0
-59 108 -134 0
38 -57 63 0
-41 164 167 0
22 178 190 0
-9 43 -155 0
2 71 -109 0
-49 -154 -159 0
-106 -110 150 0
53 91 111 0
16 -68 -131 0
64 169 193 0
-118 -142 183 0
7 -151 190 0
13 -75 -110 0
-39 -113 -135 0
-51 65 -121 0
83 155 164 0
-47 102 139 0
-57 -116 161 0
-65 143 179 0
76 -112 -179 0
147 156 -180 0
-24 -74 116 0
2 -177 183 0
5 91 170 0
22 44 101 0
139 -141 150 0
27 56 82 0
69 -95 117 0
21 -165 171 0
-40 -72 -169 0
110 -116 158 0
64 68 77 0
53 -141 -167 0
66 -149 164 0
63 -80 187 0
33 -37 -195 0
28 106 -190 0
5 -30 -132 0
-2 -112 -158 0
85 99 188 0
7 57 192 0
-12 -139 -145 0
67 86 121 0
-45 60 132 0
1 27 -138 0
45 -102 112 0
41 111 -155 0
41 64 -129 0
-149 -158 166 0
-38 75 -111 0
-17 19 147 0
-89 153 169 0
92 -144 -153 0
127 -132 173 0
12 110 153 0
-147 151 -163 0
40 122 -138 0
-4 -139 -150 0
46 -109 -193 0
28 57 -113 0
75 -87 -108 0
-166 177 -182 0
127 141 169 0
-76 -103 168 0
-2 -55 182 0
-55 61 -137 0
50 -114 -156 0
-27 98 -141 0
-41 99 108 0
-35 40 60 0
-11 50 190 0
-8 39 187 0
54 -115 122 0
-121 124 194 0
-93 179 -183 0
-10 132 162 0
57 -95 124 0
-22 56 -137 0
15 43 -53 0
-24 -40 138 0
-39 91 -166 0
-60 -61 194 0
-129 153 181 0
1 65 174 0
55 81 -132 0
92 -98 -194 0
-38 58 123 0
-14 -76 138 0
72 79 112 0
-23 -119 -168 0
138 -171 192 0
44 -191 192 0
109 -140 -191 0
-12 51 130 0
80 163 -195 0
51 -55 118 0
78 82 -193 0
-60 -139 -143 0
-103 -118 139 0
-23 -49 -146 0
-43 -83 -146 0
-93 136 -144 0
53 -71 73 0
12 133 179 0
69 108 153 0
-55 160 -167 0
-93 94 -102 0
109 -149 -155 0
91 -101 -121 0
-22 78 194 0
52 179 -183 0
-23 26 -159 0
59 138 -140 0
23 98 118 0
83 147 -168 0
-10 39 -176 0
102 -143 -155 0
3 -94 -98 0
-11 -47 98 0
-21 -117 172 0
8 41 137 0
112 122 -126 0
-50 -51 -185 0
21 -123 138 0
-15 -24 -184 0
25 41 -119 0
66 95 -186 0
10 -112 144 0
-24 179 -190 0
-43 -50 69 0
-80 -120 194 0
32 -36 136 0
26 90 -181 0
19 -37 164 0
-145 -157 -164 0
-21 -165 179 0
65 -70 -146 0
96 97 117 0
-45 -101 184 0
-36 87 172 0
49 85 -140 0
-16 -146 -185 0
-22 52 -125 0
-12 -134 -178 0
6 55 -72 0
80 -89 132 0
135 -148 -191 0
43 -75 155 0
118 121 193 0
43 65 68 0
40 -48 187 0
-57 73 160 0
-89 149 190 0
52 -86 -153 0
-30 -83 126 0
74 86 -156 0
137 138 191 0
30 -45 -87 0
21 -48 -176 0
-118 -144 180 0
-5 -62 139 0
-6 69 181 0
23 61 -163 0
-85 -96 185 0
-82 -121 -159 0
76 -89 -104 0
-73 129 145 0
-77 -106 152 0
72 88 -153 0
24 29 188 0
41 -43 -179 0
28 -77 101 0
25 -33 147 0
-69 70 -169 0
7 26 -62 0
-73 105 128 0
-44 -87 178 0
37 -109 -176 0
2 84 97 0
-33 -84 -129 0
-119 -134 162 0
99 -154 158 0
-85 -141 -151 0
-14 114 143 0
-29 54 -153 0
-1 -83 -99 0
3 110 123 0
-22 -140 144 0
-19 57 83 0
-39 122 -183 0
62 124 -149 0
-66 150 180 0
65 120 155 0
-23 124 -138 0
-3 19 39 0
60 148 179 0
42 -93 -173 0
84 -133 -169 0
28 154 178 0
-7 -147 153 0
58 -157 -173 0
4 93 98 0
-56 157 174 0
-12 -158 -163 0
70 -164 -191 0
3 -20 -72 0
39 80 116 0
-33 117 130 0
3 -24 -134 0
30 -120 128 0
113 -170 172 0
35 51 150 0
-136 141 157 0
80 96 -157 0
40 -91 -139 0
98 142 162 0
-35 91 -155 0
6 131 166 0
-55 57 -192 0
74 -82 137 0
58 -87 -143 0
-27 -66 -85 0
-30 -99 -165 0
-11 -56 180 0
58 -72 84 0
-23 42 122 0
8 10 29 0
33 106 118 0
-62 66 181 0
-3 -21 108 0
-123 155 165 0
6 -18 75 0
53 -83 189 0
96 99 -147 0
-55 64 -184 0
35 -95 195 0
91 -131 159 0
-11 -18 84 0
-26 -78 -188 0
144 -153 -179 0
29 113 143 0
-12 68 -168 0
-12 -24 -42 0
-12 -37 158 0
24 35 90 0
41 -53 -72 0
12 -20 -95 0
-1 118 -185 0
89 108 -153 0
-23 39 -118 0
-20 38 159 0
-95 -107 119 0
-1 85 134 0
-10 -65 70 0
-27 37 -163 0
37 -183 -187 0
5 -8 -88 0
-17 -84 -157 0
-74 -143 164 0
12 69 -75 0
81 96 -155 0
-56 -148 192 0
-35 108 -175 0
-4 -29 179 0
-57 99 138 0
52 150 195 0
-53 133 -168 0
-34 67 169 0
79 86 146 0
85 -88 -162 0
-50 -126 178 0
17 -136 -169 0
39 112 116 0
29 -128 -139 0
22 -48 -120 0
13 -16 -132 0
-1 -21 -178 0
39 -61 -76 0
-33 154 195 0
-28 -111 -149 0
62 81 155 0
52 -82 -151 0
57 -131 -191 0
-7 61 -185 0
150 158 -182 0
32 44 -174 0
-36 -65 118 0
-107 -126 -177 0
53 -86 169 0
-3 -40 -52 0
-7 -99 166 0
-46 116 -122 0
-46 96 -178 0
-32 -41 192 0
4 142 190 0
50 54 66 0
11 113 129 0
-67 -75 -115 0
-32 -46 -173 0
-89 139 -167 0
-135 -161 166 0
85 -111 -147 0
52 -143 187 0
14 -30 -85 0
74 -112 115 0
17 -128 -138 0
50 -106 -164 0
62 68 75 0
154 -163 -190 0
8 -118 -179 0
104 157 183 0
62 -102 159 0
-65 106 189 0
-52 137 144 0
34 39 -160 0
-68 70 -97 0
36 90 -190 0
-1 -118 -144 0
9 -73 139 0
-66 -132 -195 0
12 -63 65 0
1 65 -163 0
41 -71 -150 0
9 50 -95 0
-7 129 140 0
-26 88 -191 0
-1 -55 -140 0
33 -52 -183 0
-37 159 177 0
-5 28 -76 0
-70 -72 184 0
42 -43 71 0
55 89 117 0
161 169 -194 0
-17 98 124 0
16 147 -184 0
-35 111 131 0
1 78 110 0
8 -63 170 0
-1 24 -67 0
-100 131 192 0
38 62 99 0
2 117 148 0
-4 -74 -191 0
12 28 -156 0
-16 -19 51 0
105 113 122 0
17 88 -189 0
-4 84 86 0
-96 113 -170 0
-21 61 65 0
31 79 -187 0
-29 87 -117 0
-7 -93 -186 0
-67 127 -185 0
-16 34 51 0
27 85 -131 0
69 105 180 0
96 -114 165 0
-8 58 169 0
-100 -107 -170 0
45 -67 -117 0
14 -36 97 0
47 -55 168 0
-94 -105 185 0
102 134 158 0
-84 188 -195 0
38 -55 171 0
88 110 164 0
-79 180 183 0
-15 94 -146 0
-46 76 180 0
56 -91 128 0
-3 5 140 0
37 54 193 0
-118 -151 166 0
15 -59 165 0
3 -166 170 0
26 111 -133 0
-91 170 -191 0
-16 -125 147 0
87 89 182 0
60 -163 -182 0
-26 31 -91 0
80 -128 151 0
-99 120 178 0
-1 36 195 0
106 117 125 0
12 -76 83 0
30 -110 151 0
21 -84 -121 0
-75 85 110 0
70 -76 84 0
-37 75 188 0
-5 -136 165 0
-3 128 -182 0
-24 -76 -84 0
1 50 -55 0
29 71 -158 0
-25 79 180 0
-114 157 188 0
-38 -46 -155 0
73 -131 -134 0
31 46 123 0
37 71 -163 0
47 -48 191 0
-52 145 -161 0
92 119 -164 0
28 -128 -144 0
30 108 192 0
31 42 -58 0
-10 78 -80 0
-18 -22 -65 0
2 51 163 0
-7 12 112 0
15 41 101 0
38 -43 171 0
-87 -148 185 0
104 -119 188 0
84 -88 128 0
-85 -93 126 0
54 62 105 0
-63 -122 134 0
67 -102 -136 0
-24 -33 -82 0
10 -130 -134 0
26 -68 -117 0
-78 92 -120 0
40 113 120 0
42 -66 -164 0
-134 146 -151 0
-39 -143 192 0
-83 -155 193 0
-34 54 57 0
94 139 -192 0
94 -108 171 0
-111 -128 -161 0
-148 -159 182 0
-86 93 -177 0
-114 -143 -177 0
38 -77 93 0
59 104 -152 0
-20 103 -122 0
-39 76 78 0
-137 146 -149 0
-21 67 -184 0
-162 163 -171 0
-4 -17 -104 0
81 -101 -152 0
33 124 145 0
-92 -104 179 0
-17 49 56 0
26 -99 -162 0
-157 -162 172 0
-40 87 101 0
-41 -130 -153 0
17 -75 108 0
11 -134 -176 0
-81 -99 -118 0
71 -96 130 0
-10 -93 -96 0
-10 -16 -163 0
59 77 -168 0
98 -185 193 0
4 -31 58 0
-62 -78 -115 0
-23 -95 116 0
-43 81 -181 0
-35 158 191 0
25 49 -98 0
-72 163 -180 0
13 23 74 0
13 -66 -78 0
35 52 -191 0
-84 -94 -135 0
-62 121 123 0
78 -152 163 0
51 148 168 0
73 78 139 0
-125 -149 -162 0
-13 87 159 0
-49 -177 -192 0
70 87 -168 0
-74 188 192 0
13 175 183 0
-77 104 -160 0
59 -122 -141 0
-7 -47 178 0
-14 110 189 0
-46 -154 192 0
112 122 -128 0
-13 147 -183 0
72 89 -122 0
93 152 -158 0
29 -55 -122 0
16 -88 153 0
-64 152 -169 0
-31 74 103 0
-1 -92 -127 0
-55 -120 -127 0
140 142 -161 0
95 152 164 0
-53 70 160 0
30 73 100 0
-4 89 110 0
56 61 161 0
-5 53 -188 0
-15 53 84 0
12 -52 184 0
97 -141 180 0
-65 -85 120 0
-28 130 -184 0
-143 169 -187 0
69 -73 141 0
163 -180 -194 0
-11 -105 186 0
-50 154 179 0
-1 -78 -192 0
-16 -125 -130 0
8 21 -48 0
-2 62 -67 0
-45 -137 -153 0
28 157 193 0
-141 183 192 0
-14 -100 131 0
50 -123 -183 0
-20 115 -121 0
-29 -70 75 0
115 -140 -182 0
1 -2 -64 0
-123 -153 179 0
18 -69 100 0
-82 159 -183 0
17 -68 189 0
32 -133 153 0
19 -43 127 0
5 124 -127 0
33 -65 195 0
16 154 -157 0
-57 70 -163 0
38 62 -148 0
90 -128 183 0
-121 165 -184 0
2 68 -128 0
-8 -75 116 0
1 2 22 0
-102 -117 153 0
-25 79 -161 0
22 101 147 0
-86 -88 -126 0
6 68 104 0
29 123 -125 0
-50 109 -133 0
27 34 79 0
-118 -171 182 0
35 -143 -173 0
-18 -24 -157 0
8 -95 185 0
-37 -44 -158 0
70 124 -153 0
-41 -153 180 0
-139 157 182 0
47 -75 -170 0
-89 108 -181 0
124 -160 169 0
13 113 -176 0
64 119 150 0
-27 80 -156 0
41 -53 -137 0
24 58 -177 0
32 151 -179 0
-22 -47 70 0
-25 116 -168 0
-1 101 187 0
-89 115 -179 0
64 157 -165 0
-73 -91 95 0
-86 -124 185 0
-26 -62 -148 0
34 -84 -192 0
68 -112 152 0
-70 -73 -98 0
1 128 132 0
-54 73 -91 0
-50 97 169 0
62 -121 186 0
-9 -35 -173 0
91 99 -152 0
36 140 -191 0
125 -156 192 0
-53 -97 131 0
-10 53 -124 0
28 -31 -184 0
-17 45 173 0
68 136 -192 0
5 65 96 0
57 88 -95 0
39 50 163 0
41 -67 90 0
-30 -70 -150 0
30 107 -146 0
-58 158 -179 0
23 81 171 0
-39 -52 -96 0
75 80 132 0
-125 145 -179 0
13 46 -189 0
62 -146 149 0
-64 165 167 0
117 -128 162 0
-21 80 -142 0
15 -81 -171 0
46 120 -166 0
-14 41 -68 0
-45 -163 -182 0
-15 -52 -66 0
-51 -57 140 0
11 25 -77 0
123 141 -186 0
-10 -184 186 0
-171 -172 186 0
-43 84 -167 0
16 46 91 0
15 -79 160 0
16 -161 176 0
11 49 150 0
58 67 132 0
1 -33 124 0
-71 -79 -87 0
-65 -106 179 0
-47 98 135 0
-85 92 117 0
-8 122 170 0
-45 107 109 0
53 -88 170 0
-44 118 -143 0
46 52 68 0
70 75 184 0
29 116 192 0
-99 -110 -187 0
-11 -75 -93 0
-29 -52 153 0
111 -161 -185 0
29 -68 102 0
-21 34 -140 0
-53 -61 150 0
5 -95 -156 0
-47 133 -160 0
182 186 -191 0
41 -106 -170 0
-67 119 173 0
-13 -24 -108 0
26 105 -180 0
34 176 181 0
-61 129 189 0
53 -72 191 0
94 -184 -194 0
-165 185 -188 0
11 28 155 0
-18 66 -95 0
-54 -108 -138 0
138 -155 170 0
53 57 -150 0
21 47 95 0
-43 -52 87 0
50 -75 134 0
-15 -50 68 0
-5 -7 135 0
22 93 -189 0
-46 100 -158 0
74 76 79 0
16 -24 48 0
-93 -184 -193 0
-68 -73 190 0
16 -102 -150 0
6 -115 143 0
26 183 -185 0
-115 -177 188 0
-66 115 -133 0
68 -72 -180 0
-3 -17 -31 0
-9 -99 147 0
-3 49 145 0
37 -130 161 0
-70 -117 149 0
175 176 -195 0
1 -126 -144 0
91 105 156 0
-18 67 -177 0
59 82 -121 0
16 44 113 0
-76 113 -139 0
-5 87 -88 0
40 -84 140 0
-5 63 102 0
26 53 -136 0
81 106 176 0
104 -150 -184 0
-43 -65 -188 0
125 128 174 0
31 -71 -180 0
-99 -120 183 0
69 74 -167 0
-25 58 -153 0
1 135 -178 0
22 -88 148 0
81 121 -137 0
-5 54 79 0
53 -97 143 0
33 -112 143 0
-28 -40 -96 0
-77 88 189 0
-47 133 186 0
-138 181 -195 0
-40 128 -143 0
64 -89 100 0
-54 90 160 0
42 -50 88 0
-12 -156 -190 0
31 89 169 0
-63 128 164 0
11 -114 -171 0
-67 -129 -143 0
-49 57 128 0
-51 -125 144 0
61 -62 116 0
-44 63 -130 0
-97 122 165 0
-71 -128 145 0
85 -119 -146 0
71 -189 -194 0
-16 -63 -92 0
88 124 158 0
64 67 123 0
136 -141 167 0
3 95 193 0
65 181 192 0
-157 -177 -184 0
93 -143 145 0
-64 149 173 0
9 -120 -123 0
-40 68 183 0
-32 41 149 0
-2 183 -194 0
-43 65 -170 0
90 100 -127 0
70 -104 107 0
91 -155 -183 0
-79 -106 165 0
-88 -132 181 0
55 61 113 0
34 46 118 0
-48 143 160 0
3 -36 172 0
-8 -42 148 0
-29 -95 -141 0
-70 86 -134 0
-9 106 145 0
4 98 -191 0
39 132 -173 0
35 117 -174 0
-21 44 -158 0
-59 92 93 0
-33 47 71 0
-11 -155 -191 0
101 -130 152 0
12 -59 -155 0
100 -167 -177 0
-43 -46 136 0
30 43 176 0
53 -109 -134 0
-55 102 -108 0
-50 145 -175 0
98 110 -169 0
84 -90 -172 0
13 32 173 0
-49 148 191 0
44 -140 -189 0
30 77 -172 0
12 -145 -157 0
57 -118 -174 0
-131 181 192 0
5 153 182 0
-50 -173 191 0
-123 141 -173 0
42 45 -111 0
-31 -154 185 0
-10 -123 -154 0
48 -51 -77 0
-32 148 -191 0
32 55 190 0
15 -61 139 0
-11 -75 -145 0
-40 43 -51 0
23 -31 62 0
6 -46 95 0
30 -68 -163 0
-46 70 -88 0
49 -132 187 0
114 -148 -160 0
12 -191 -193 0
62 87 182 0
-5 150 193 0
-21 68 78 0
-68 164 -178 0
