p cnf 89 381
-24 -28 55 0
7 69 78 0
11 -60 -65 0
31 -51 72 0
-19 67 73 0
17 39 81 0
5 -51 -54 0
3 -31 33 0
49 52 70 0
-52 -79 88 0
-11 34 -88 0
35 55 -64 0
38 -41 76 0
-2 8 73 0
34 -41 44 0
-11 -57 84 0
40 57 77 0
4 59 68 0
-49 53 -65 0
-4 22 54 0
5 69 74 0
5 25 79 0
-3 50 -69 0
-53 54 55 0
-14 -67 -79 0
-6 53 -83 0
12 28 -81 0
27 -44 84 0
3 5 -71 0
7 -24 -86 0
29 -46 -66 0
-1 34 50 0
-1 -63 85 0
17 -68 70 0
70 -71 -76 0
7 -48 -54 0
2 -4 6 0
3 -34 -53 0
9 10 -19 0
-13 -50 -60 0
59 71 -75 0
21 43 -47 0
-10 -55 -74 0
-22 -62 71 0
-12 -25 79 0
34 -70 -86 0
-23 25 -32 0
15 42 73 0
28 -29 -78 0
13 15 -64 0
8 -23 -56 0
26 29 -51 0
-25 34 -64 0
-42 55 60 0
33 43 -86 0
-11 -36 43 0
-13 42 -46 0
19 -40 -68 0
-27 -48 -80 0
64 67 -77 0
11 -33 68 0
36 -43 -56 0
38 40 -84 0
11 -34 76 0
-56 -79 -87 0
-41 -83 -88 0
-4 49 64 0
39 79 -85 0
5 -6 48 0
4 -17 55 0
35 -69 -73 0
-64 74 -84 0
-24 -50 75 0
10 -17 -61 0
-24 -38 -42 0
-33 -52 83 0
-29 58 79 0
19 32 40 0
-22 28 39 0
33 43 71 0
14 -18 -65 0
-21 40 -71 0
28 33 46 0
-40 -42 -82 0
10 -35 57 0
-28 38 71 0
49 -74 86 0
2 78 82 0
-52 55 -82 0
-10 16 23 0
45 54 85 0
61 73 74 0
15 -26 -51 0
-23 47 -89 0
-25 -37 -81 0
-46 -58 -87 0
10 -30 -35 0
34 -63 -85 0
28 -45 -81 0
7 -13 -19 0
26 -79 85 0
-4 12 -25 0
42 59 -62 0
-23 -27 -85 0
-15 18 -82 0
19 69 -70 0
18 20 -24 0
-22 50 -76 0
66 -77 -89 0
-10 -60 78 0
20 73 -88 0
-23 -41 -55 0
6 -14 57 0
11 -13 -49 0
70 -72 -80 0
47 -48 -76 0
-6 71 -89 0
5 58 78 0
-4 -10 28 0
31 -38 55 0
-15 34 -87 0
-8 -23 -34 0
51 62 -74 0
-3 54 79 0
21 -33 -83 0
9 59 -84 0
-50 60 -72 0
26 -33 83 0
55 -68 75 0
62 63 77 0
2 -47 -75 0
-5 -62 -80 0
25 -35 -88 0
42 80 86 0
-23 -34 72 0
-5 37 89 0
-60 65 82 0
-12 49 -85 0
32 36 -57 0
-29 -60 73 0
49 53 58 0
31 47 -89 0
-11 22 -66 0
45 -73 82 0
57 83 88 0
36 -56 -87 0
-10 59 -79 0
23 -50 -71 0
23 46 -56 0
38 -41 46 0
11 -15 -77 0
-10 -45 63 0
-5 49 -56 0
14 30 58 0
26 -56 85 0
25 -33 -66 0
-5 -76 87 0
-28 56 -75 0
-23 -43 62 0
44 69 72 0
5 72 -79 0
-13 24 86 0
-18 -28 43 0
6 55 73 0
-1 -37 76 0
38 61 83 0
-22 -33 53 0
27 67 84 0
-20 -35 88 0
-52 85 -87 0
6 -59 -78 0
-36 50 -82 0
11 58 80 0
14 29 -32 0
-11 -44 -74 0
-23 44 81 0
-13 -30 -88 0
22 -23 -37 0
19 24 70 0
-4 -58 89 0
-3 -42 -81 0
-4 46 -78 0
31 39 -87 0
51 -69 79 0
-31 -52 -63 0
15 43 -46 0
29 59 74 0
-59 75 87 0
1 54 61 0
-20 50 -68 0
33 -46 86 0
-6 -13 71 0
17 23 -73 0
7 46 -64 0
-13 -20 56 0
7 -46 -74 0
-16 -61 85 0
19 51 -57 0
20 22 -61 0
21 50 75 0
-18 28 -68 0
-4 -12 -86 0
-4 -64 -70 0
9 -21 -77 0
4 -21 41 0
-8 -41 -85 0
-23 -44 51 0
-8 20 32 0
54 -60 86 0
1 -7 -27 0
46 54 74 0
58 -69 75 0
-66 -67 69 0
-1 20 -76 0
-6 18 29 0
-4 -19 87 0
15 17 -43 0
11 24 82 0
-39 55 78 0
-15 48 56 0
-38 72 78 0
-17 -33 69 0
-35 48 -76 0
5 -66 87 0
9 52 78 0
3 -32 -57 0
1 -8 31 0
1 -46 58 0
3 -50 -88 0
8 53 -65 0
-35 -38 39 0
18 37 72 0
-14 -40 -65 0
-9 52 85 0
17 72 84 0
41 -57 -72 0
-3 -10 21 0
33 37 -69 0
20 37 55 0
7 48 -60 0
-21 -55 74 0
7 -23 -36 0
16 49 61 0
-17 29 70 0
-38 42 -48 0
25 30 60 0
-44 -48 62 0
-49 62 -87 0
31 -64 -86 0
39 -58 -70 0
45 -54 64 0
-27 35 -80 0
43 45 55 0
-11 16 -48 0
-21 -54 87 0
11 -43 -54 0
6 -51 -81 0
63 -74 -78 0
24 -25 84 0
-19 31 -50 0
28 43 85 0
4 -22 -57 0
45 64 72 0
-58 -62 -86 0
-32 -45 -57 0
-32 37 -58 0
15 -40 -55 0
23 -34 -58 0
-61 62 -74 0
-59 -69 -86 0
-3 -67 -77 0
-22 31 43 0
-6 -26 -53 0
7 -18 67 0
24 -66 78 0
-30 -58 -72 0
-17 -39 70 0
-34 54 79 0
28 43 -83 0
24 -27 -86 0
2 48 -86 0
-13 45 46 0
10 44 88 0
33 41 71 0
25 -65 75 0
-6 81 -84 0
-2 -9 -23 0
5 55 -84 0
-11 -21 71 0
-31 61 -66 0
21 -73 -77 0
-2 -56 -61 0
13 46 -77 0
-42 -45 55 0
-29 -48 60 0
7 -29 81 0
-6 -32 -76 0
12 38 -57 0
47 -65 88 0
-41 76 82 0
38 43 -56 0
-12 -32 -56 0
11 -20 33 0
2 33 42 0
-14 -72 79 0
23 -52 -56 0
-2 -21 82 0
-48 -74 -82 0
-32 56 81 0
38 45 53 0
12 -26 -52 0
-16 -69 70 0
35 -36 47 0
12 72 -73 0
12 82 -88 0
4 8 -36 0
37 81 -83 0
37 58 69 0
-36 -45 61 0
-7 63 -70 0
24 -51 62 0
21 -25 -35 0
43 -82 89 0
11 -51 87 0
-5 75 -86 0
32 -69 75 0
-41 -62 -67 0
2 25 -69 0
18 36 65 0
11 -38 -67 0
-28 43 56 0
13 37 -67 0
3 19 69 0
-16 -27 88 0
-24 -33 -44 0
-23 -33 -71 0
-36 -52 -53 0
53 -58 62 0
-15 -57 -71 0
-14 37 84 0
-43 -62 -78 0
3 17 61 0
-35 78 -80 0
8 -9 -17 0
37 73 -76 0
-26 46 -69 0
-9 79 89 0
-27 -57 86 0
2 -12 14 0
-46 59 -76 0
52 73 -86 0
18 41 -64 0
32 -75 77 0
-14 55 -63 0
-3 56 -67 0
-47 -81 -82 0
16 32 64 0
45 -54 63 0
-32 64 88 0
-9 23 -70 0
-63 69 83 0
-20 -33 -54 0
-11 43 76 0
19 -34 -46 0
-25 -76 85 0
-28 -40 -45 0
-19 54 -66 0
-35 -44 69 0
-16 26 61 0
31 -41 -64 0
18 51 -73 0
4 78 85 0
-40 -58 -59 0
46 -69 -84 0
49 -78 79 0
27 -29 -64 0
-7 -14 86 0
-3 54 -67 0
-28 76 -81 0
-42 57 84 0
-4 33 -82 0
