p cnf 80 343
3 -29 -72 0
43 -58 69 0
23 41 -49 0
16 -51 -72 0
-36 43 77 0
3 -9 77 0
-54 67 -79 0
1 -41 -71 0
-39 61 70 0
-7 -46 63 0
-11 39 -45 0
-30 73 77 0
-11 12 -68 0
-11 -42 49 0
2 22 71 0
38 -61 -62 0
12 45 -46 0
59 -61 -63 0
11 -22 -51 0
-16 -25 42 0
-45 46 -48 0
22 -26 41 0
37 68 -72 0
8 -53 73 0
20 -39 47 0
-10 40 -74 0
3 -44 65 0
6 -55 62 0
-3 15 -27 0
20 -62 -70 0
45 52 -58 0
-7 39 -41 0
54 56 64 0
-3 -49 -60 0
-13 36 -60 0
15 -37 -39 0
25 37 -74 0
-20 26 -64 0
11 -16 59 0
-28 59 -73 0
-7 -13 -47 0
32 -43 -80 0
22 -55 67 0
-43 48 72 0
2 -3 44 0
-6 17 28 0
10 15 -75 0
7 50 56 0
-31 -46 -49 0
-4 -9 -49 0
-3 16 62 0
-13 -67 -72 0
15 38 46 0
19 -31 -70 0
1 15 -33 0
-8 -33 -57 0
16 -33 -60 0
-8 -14 28 0
-42 -51 -78 0
1 30 -70 0
21 -47 55 0
-31 32 -50 0
12 57 62 0
10 -39 57 0
-8 -57 65 0
32 76 -79 0
-16 -27 44 0
44 -45 -50 0
-13 -26 -53 0
-12 -24 -71 0
2 7 77 0
49 72 -74 0
-5 -26 29 0
2 16 -76 0
1 -58 -79 0
-33 52 71 0
-3 -14 21 0
24 -31 -59 0
-40 74 -78 0
7 16 35 0
-22 44 -53 0
12 45 70 0
-7 50 -58 0
4 -43 -49 0
8 -65 -67 0
1 -7 21 0
12 -17 57 0
-2 34 -38 0
4 9 66 0
-7 -22 37 0
55 -66 69 0
-21 -32 52 0
-47 48 -75 0
21 -24 35 0
19 63 -78 0
25 -27 65 0
-6 26 47 0
-13 49 76 0
33 -36 47 0
-8 -52 -69 0
11 34 -39 0
41 -49 62 0
-22 36 -65 0
-2 46 -78 0
-10 -60 65 0
9 45 -50 0
-3 -67 78 0
18 -25 -65 0
1 34 51 0
-31 37 68 0
10 20 -48 0
5 26 -62 0
-4 -25 54 0
-27 67 73 0
-18 54 -77 0
-42 -48 -51 0
-1 -65 73 0
-21 -48 67 0
19 -49 -74 0
2 -10 -23 0
14 46 -48 0
-24 30 54 0
22 60 72 0
-18 -26 61 0
17 -22 70 0
39 41 63 0
-3 -37 40 0
-2 -49 -80 0
13 -43 72 0
-4 -19 -66 0
6 13 60 0
12 -44 53 0
5 28 -68 0
38 -39 56 0
-22 46 67 0
20 37 -73 0
49 50 -52 0
16 -42 -53 0
39 43 -57 0
-6 11 63 0
36 40 55 0
-6 -15 68 0
4 -12 74 0
-11 -59 74 0
27 34 -80 0
3 -55 70 0
10 26 -50 0
2 50 -72 0
17 -35 -75 0
-57 75 -79 0
-48 -54 57 0
12 -19 28 0
20 -40 44 0
-22 -24 28 0
23 50 80 0
4 -12 19 0
50 74 76 0
-6 34 -54 0
4 23 -28 0
-1 -14 80 0
-30 58 62 0
2 -49 64 0
20 -29 -37 0
28 -65 78 0
-14 -46 65 0
49 -51 75 0
29 -34 -78 0
30 61 -71 0
-30 -49 58 0
32 -33 -47 0
1 24 -46 0
19 24 36 0
51 60 -61 0
-8 -47 72 0
-41 -56 66 0
16 24 -26 0
2 26 51 0
-40 -70 80 0
-16 35 -71 0
-40 48 65 0
39 -44 -65 0
12 47 63 0
-2 20 71 0
2 61 62 0
-8 -30 61 0
22 42 -68 0
-22 39 54 0
4 -13 -56 0
18 32 42 0
-9 -36 -59 0
-24 30 -77 0
28 -54 64 0
-2 -20 -34 0
2 62 75 0
9 -31 49 0
-4 12 26 0
-23 26 -59 0
29 45 -52 0
9 -18 -23 0
31 33 45 0
35 -58 67 0
4 -20 73 0
-25 33 -44 0
-5 -50 -76 0
25 -29 -35 0
31 49 -71 0
19 -36 -72 0
1 -20 -51 0
17 -27 51 0
5 -29 55 0
-25 64 80 0
8 -41 -51 0
29 -37 59 0
-19 -61 73 0
6 -22 63 0
4 36 -72 0
-14 -55 -59 0
-4 56 -65 0
-12 34 58 0
9 12 -54 0
-4 22 -54 0
6 32 70 0
43 -49 52 0
40 -75 76 0
-2 43 55 0
20 24 -54 0
30 31 51 0
3 -29 41 0
-1 56 -68 0
46 -61 -66 0
-29 60 -70 0
-33 37 -53 0
-1 -13 -65 0
36 -46 -48 0
-10 -30 -74 0
-4 -51 66 0
6 -9 -49 0
33 -36 -48 0
19 27 29 0
-17 -36 -44 0
-15 -25 28 0
-2 -5 70 0
5 -63 -74 0
-9 37 -79 0
22 -66 71 0
4 23 -61 0
-25 35 -73 0
-29 -33 -55 0
-46 68 76 0
13 -49 79 0
8 -33 -35 0
9 -70 -72 0
-40 49 -66 0
-15 -24 -71 0
28 51 76 0
20 -46 74 0
41 -52 -77 0
-29 -57 75 0
49 -50 66 0
6 -30 41 0
-30 62 72 0
-5 -12 -33 0
1 5 -53 0
48 68 -78 0
7 38 49 0
19 -78 80 0
4 -51 63 0
-7 -22 -67 0
-38 57 74 0
18 22 23 0
12 -55 60 0
9 -25 64 0
-15 -16 28 0
24 -35 55 0
-35 -46 49 0
11 31 41 0
9 28 29 0
30 -64 -67 0
18 31 -50 0
59 71 -77 0
-2 55 73 0
39 51 -71 0
7 36 57 0
-24 30 72 0
49 51 71 0
-23 33 -78 0
-13 27 32 0
-44 -54 64 0
3 -48 -71 0
25 -38 44 0
23 46 -60 0
-1 49 58 0
-18 -31 -48 0
5 -20 -53 0
4 -24 -69 0
-36 -53 -70 0
21 27 58 0
4 -9 44 0
-21 30 -36 0
-45 -50 71 0
-61 67 71 0
-34 37 40 0
-7 -12 57 0
-3 -28 73 0
-41 -44 -67 0
39 -62 77 0
-12 -49 -58 0
21 -25 -33 0
-44 60 -80 0
9 24 -62 0
12 69 -78 0
33 36 55 0
16 -60 -75 0
-46 -48 68 0
-20 75 78 0
1 27 -55 0
-21 58 -66 0
33 63 75 0
-42 47 62 0
-22 54 70 0
49 58 -77 0
-20 24 -65 0
55 62 -72 0
1 -33 76 0
-29 66 68 0
-15 34 57 0
23 37 39 0
-16 35 47 0
17 -36 -80 0
16 -64 -65 0
-16 -27 43 0
10 62 71 0
33 -63 70 0
25 -37 62 0
-33 -44 -76 0
-12 -60 75 0
-29 -39 56 0
-4 -29 45 0
-13 48 -70 0
-32 -55 -59 0
-46 -55 -73 0
-2 -17 73 0
4 23 79 0
