p cnf 50 217
8 40 -43 0
7 -10 41 0
-17 -35 -36 0
7 -13 32 0
-6 -21 48 0
-8 20 -42 0
-15 -34 49 0
-13 -36 -45 0
-20 -24 48 0
-16 36 40 0
21 -35 40 0
-4 16 33 0
3 14 27 0
13 14 26 0
2 22 -44 0
-6 -31 37 0
-8 -12 -17 0
20 -40 44 0
-4 28 47 0
-4 -14 16 0
33 -43 49 0
-7 -36 46 0
-25 28 -40 0
-19 26 -27 0
8 -13 -48 0
-25 -26 -40 0
-6 40 -43 0
-10 41 -47 0
8 17 -19 0
-3 -4 31 0
10 17 -18 0
-2 27 -28 0
5 -7 -20 0
11 -23 43 0
-13 -30 -37 0
-4 -34 45 0
35 37 42 0
-14 23 -28 0
-22 35 42 0
-7 -10 -24 0
11 -15 -47 0
-22 27 -36 0
23 -31 -50 0
28 -40 -41 0
-4 -28 34 0
-31 42 -49 0
29 -35 38 0
8 14 25 0
-4 5 -35 0
-12 -19 27 0
3 29 35 0
1 -41 -47 0
11 -22 26 0
-11 14 33 0
-8 21 -28 0
20 -22 23 0
1 14 22 0
-4 11 25 0
-20 -28 48 0
-29 34 35 0
11 -21 -28 0
7 -9 50 0
1 -4 20 0
-6 -24 -26 0
-1 30 -33 0
24 27 -28 0
-36 42 47 0
17 -31 -33 0
-26 41 -50 0
9 -14 40 0
23 26 29 0
7 23 -46 0
10 -14 -40 0
-23 26 42 0
4 21 -38 0
1 18 -31 0
-30 33 -38 0
-15 -18 -29 0
9 34 -37 0
-18 20 -44 0
13 26 49 0
15 -24 -25 0
16 25 -37 0
-9 16 34 0
16 34 -43 0
2 9 -15 0
7 12 -48 0
-13 -30 34 0
-24 30 50 0
39 -43 44 0
9 23 -29 0
28 -34 45 0
-12 22 24 0
1 -8 -27 0
3 -27 34 0
-6 19 36 0
17 -26 27 0
14 20 24 0
6 7 -20 0
-14 20 37 0
-16 -21 45 0
-26 -30 32 0
28 29 39 0
4 -22 -32 0
3 6 39 0
-6 -34 -37 0
-19 -44 -48 0
6 10 -20 0
-16 -18 -47 0
-21 37 -43 0
8 9 -10 0
16 34 44 0
-26 31 37 0
24 28 40 0
-5 10 24 0
28 31 45 0
-12 -19 -22 0
-4 -26 39 0
12 33 -44 0
-12 44 50 0
-2 -5 -21 0
2 -8 20 0
5 -36 43 0
-10 25 49 0
7 13 35 0
4 -20 -41 0
-7 21 50 0
25 -29 -36 0
5 10 22 0
2 -21 -47 0
4 -13 -29 0
-23 -31 -36 0
11 19 -38 0
-3 -9 26 0
-16 29 -35 0
-7 25 -26 0
-19 20 -26 0
10 -25 -27 0
28 45 49 0
-10 38 -49 0
23 28 -34 0
-33 35 46 0
-11 -13 47 0
11 -15 24 0
-13 -34 37 0
22 -24 43 0
7 -40 -50 0
1 6 26 0
-29 -31 -37 0
-14 24 30 0
14 -48 -50 0
-13 32 44 0
20 23 44 0
3 35 -48 0
14 -22 46 0
-15 -23 43 0
-40 -41 48 0
-21 37 -40 0
-18 -26 -42 0
1 13 48 0
-19 -36 40 0
6 9 -41 0
-15 24 -48 0
-24 -30 -35 0
4 -21 -32 0
17 25 49 0
-4 20 25 0
6 10 -31 0
29 -40 -45 0
3 8 20 0
8 18 -20 0
-17 39 42 0
28 35 -45 0
-4 8 -46 0
-3 -31 39 0
-4 17 -33 0
-37 -42 47 0
-3 -29 -46 0
5 -8 -50 0
8 20 24 0
-6 13 -30 0
17 31 -40 0
1 -28 -43 0
3 11 15 0
11 -22 -37 0
-24 25 -30 0
4 -11 13 0
-11 -40 -49 0
9 -37 -47 0
19 25 50 0
11 25 -39 0
-6 21 48 0
-4 -13 14 0
-2 -34 43 0
3 29 46 0
-1 -25 39 0
-5 -36 -38 0
33 -39 -49 0
9 -12 -49 0
-8 21 -30 0
16 -33 39 0
-1 12 -44 0
-6 8 17 0
9 11 -43 0
7 10 17 0
10 29 45 0
21 36 -50 0
14 -41 50 0
-23 -25 44 0
-21 24 30 0
22 -46 -49 0
4 -21 41 0
8 32 -41 0
34 37 -49 0
-6 -32 -45 0
-1 3 -50 0
-7 -27 36 0
